LAMMPS (7 Aug 2019)
OMP_NUM_THREADS environment is not set. Defaulting to 1 thread. (src/comm.cpp:93)
  using 1 OpenMP thread(s) per MPI task
# THIS IS A LAMMPS FILE TO GENERATE SQUALANE UNDER AMBIENT CONIDTIONS STARTING FROM LATTICE
# Phase 1: start off a lattice with chains centered at each point of the lattice; then
# deform the box slowly at ambient T monitoring that we are fluctuating on average about the ambient P, and reaching about the density you need to get to (we will get much closer to the desired density in phase 2)
# Major update times:
# 2019.09.20: adding comments on the old files for better readability
# 2019.10.10: more comments added. note that the LAMMPS 2016 version was used to execute the code. some commands may need slight change if your LAMMPS version is different.
# SQL is the selected model
# 2020.01.17:Updated to work with LAMMPS 2019

units		real
dimension      	3
boundary       	p p p
atom_style       	molecular  # 	bonds, angles, dihedrals, impropers : uncharged molecules
#molecule       	SQL infiles/UA.MG.SQL.txt
#atom_style     	template SQL

variable       	bl equal 270		# 6 times larger than desired size
variable       	Nmol equal 125		# turns out to be sufficient for shear studies planned; could do 8X
variable       	eqmT equal 293		# ambient / room temperature desired
variable       	eqmP equal 0.987	# ambient pressure desired, note 0.1MPa = 0.987 atm; real units use atm
variable        pxx equal pxx
variable        pyy equal pyy
variable        pzz equal pzz
variable        pxy equal pxy
variable        pxz equal pxz
variable        pyz equal pyz
variable	a equal cella
variable 	b equal cellb
variable 	c equal cellc
variable 	rho equal density
variable 	vol equal vol
variable 	etotal equal etotal

lattice        	fcc 45
Lattice spacing in x,y,z = 45 45 45
region         	simbox prism 0 ${bl} 0 ${bl} 0 ${bl} 0 0 0 units box side in
region         	simbox prism 0 270 0 ${bl} 0 ${bl} 0 0 0 units box side in
region         	simbox prism 0 270 0 270 0 ${bl} 0 0 0 units box side in
region         	simbox prism 0 270 0 270 0 270 0 0 0 units box side in

# (type1: CH2) (type2: CH3 end) (type3: CH3 side) (type4: CH)
# by defualt 1 is there so what ever the max column length -1 for extra:  example special bonds: max elements for row=2+2+4=8, so need 7
create_box     	4 simbox bond/types 1 angle/types 1 dihedral/types 2 improper/types 1 extra/bond/per/atom 2 extra/angle/per/atom 3 extra/dihedral/per/atom 2 extra/improper/per/atom 1 extra/special/per/atom 7
Created triclinic box = (0 0 0) to (270 270 270) with tilt (0 0 0)
  4 by 4 by 4 MPI processor grid

molecule       	SQL infiles/UA.MG.SQL.txt
Read molecule SQL:
  30 atoms with max type 4
  29 bonds with max type 1
  34 angles with max type 1
  31 dihedrals with max type 2
  6 impropers with max type 1
lattice        	sc 45
Lattice spacing in x,y,z = 45 45 45
region         	genbox prism 45 225 45 225 45 225 0 0 0 units box
create_atoms   	0 region genbox mol SQL 621634197 units box
Created 3750 atoms
  create_atoms CPU = 0.00612283 secs

neighbor       	0.3 bin
neigh_modify   	every 1 delay 0 check yes

# parameters are largely obtained from Mondello & Grest (1995) JCP 103, 7156: model A; hence called MG
# also refer to Moore et al (Cummings group) (2000) JCP 113, 8833
mass           	1 14.026
mass           	2 15.034
mass           	3 15.034
mass           	4 13.018

pair_style     	lj/cut 10			# MG do not say if cutoffs obey BL rules
pair_modify    	shift yes			# MG do not really mention if LJ is shifted in their above cited paper, they do so in a follow-up paper.
special_bonds  	lj 0.0 0.0 0.0

bond_style     	harmonic
angle_style    	harmonic
dihedral_style 	multi/harmonic
improper_style	harmonic

pair_coeff     	1 1 0.093 3.93 10
pair_coeff     	1 2 0.145 3.93 10
pair_coeff     	1 3 0.145 3.93 10
pair_coeff     	1 4 0.086 3.87 10
pair_coeff     	2 2 0.227 3.93 10
pair_coeff     	2 3 0.227 3.93 10
pair_coeff     	2 4 0.134 3.87 10
pair_coeff     	3 3 0.227 3.93 10
pair_coeff     	3 4 0.134 3.87 10
pair_coeff     	4 4 0.080 3.81 10

bond_coeff      1 448.126 1.54
angle_coeff     1 62.14 114
dihedral_coeff 	1 2.007 -4.012 0.271 6.290 0
dihedral_coeff 	2 0.814 -1.792 0.389 3.673 0
improper_coeff	1 40 27.25

# this initial phase is just to relax the molecules (see movie)
thermo         	1
thermo_style   	custom step temp vol press density pe etotal
dump           	iphase all atom 10 outfiles/dumpiphase.atom
dump_modify    	iphase first yes
dump_modify    	iphase scale no
minimize       	1.0e-5 1.0e-6 10000 10000
Neighbor list info ...
  update every 1 steps, delay 0 steps, check yes
  max neighbors/atom: 2000, page size: 100000
  master list distance cutoff = 10.3
  ghost atom cutoff = 10.3
  binsize = 5.15, bins = 53 53 53
  1 neighbor lists, perpetual/occasional/extra = 1 0 0
  (1) pair lj/cut, perpetual
      attributes: half, newton on
      pair build: half/bin/newton/tri
      stencil: half/bin/3d/newton/tri
      bin: standard
Per MPI rank memory allocation (min/avg/max) = 10.42 | 10.49 | 11.07 Mbytes
Step Temp Volume Press Density PotEng TotEng 
       0            0     19683000    56.038736 0.0044586014    283755.85    283755.85 
       1            0     19683000     89.10756 0.0044586014     223132.6     223132.6 
       2            0     19683000    95.064157 0.0044586014    142987.13    142987.13 
       3            0     19683000   -43.641442 0.0044586014    90541.847    90541.847 
       4            0     19683000   -293.24073 0.0044586014    60738.866    60738.866 
       5            0     19683000   -585.40233 0.0044586014    48311.515    48311.515 
       6            0     19683000   -603.90406 0.0044586014     42845.65     42845.65 
       7            0     19683000   -557.07247 0.0044586014    39103.038    39103.038 
       8            0     19683000   -545.28215 0.0044586014    36973.715    36973.715 
       9            0     19683000   -553.44017 0.0044586014    34783.823    34783.823 
      10            0     19683000   -542.56514 0.0044586014    33757.978    33757.978 
      11            0     19683000    -489.0998 0.0044586014    32056.514    32056.514 
      12            0     19683000   -472.96638 0.0044586014    29792.097    29792.097 
      13            0     19683000   -491.61277 0.0044586014    28084.332    28084.332 
      14            0     19683000   -491.92941 0.0044586014     26206.26     26206.26 
      15            0     19683000   -450.27738 0.0044586014    25689.402    25689.402 
      16            0     19683000   -355.84334 0.0044586014    24810.958    24810.958 
      17            0     19683000   -326.81542 0.0044586014    23037.531    23037.531 
      18            0     19683000   -421.50567 0.0044586014    21739.282    21739.282 
      19            0     19683000   -461.88676 0.0044586014    21073.026    21073.026 
      20            0     19683000   -408.77807 0.0044586014     19079.43     19079.43 
      21            0     19683000   -362.29648 0.0044586014    18322.162    18322.162 
      22            0     19683000   -291.37282 0.0044586014    17699.437    17699.437 
      23            0     19683000    -278.3261 0.0044586014    15896.976    15896.976 
      24            0     19683000   -327.92765 0.0044586014    14530.478    14530.478 
      25            0     19683000   -367.92435 0.0044586014    13566.739    13566.739 
      26            0     19683000   -306.25265 0.0044586014    11912.851    11912.851 
      27            0     19683000   -216.38548 0.0044586014    10512.945    10512.945 
      28            0     19683000   -244.77111 0.0044586014    10052.674    10052.674 
      29            0     19683000   -306.93567 0.0044586014     9457.523     9457.523 
      30            0     19683000     -264.707 0.0044586014     8370.936     8370.936 
      31            0     19683000   -179.89193 0.0044586014    6765.0968    6765.0968 
      32            0     19683000   -193.03814 0.0044586014     6583.387     6583.387 
      33            0     19683000    -222.5705 0.0044586014    6384.9224    6384.9224 
      34            0     19683000   -209.69547 0.0044586014    5457.4592    5457.4592 
      35            0     19683000   -146.46783 0.0044586014     4384.947     4384.947 
      36            0     19683000   -97.953206 0.0044586014    3586.2082    3586.2082 
      37            0     19683000   -128.15315 0.0044586014    2946.7961    2946.7961 
      38            0     19683000   -161.75716 0.0044586014    2521.1836    2521.1836 
      39            0     19683000   -131.57793 0.0044586014    1989.7818    1989.7818 
      40            0     19683000   -75.828624 0.0044586014    1556.4837    1556.4837 
      41            0     19683000   -65.409185 0.0044586014    1356.3999    1356.3999 
      42            0     19683000   -88.232292 0.0044586014    1152.9005    1152.9005 
      43            0     19683000   -98.618698 0.0044586014    1004.3737    1004.3737 
      44            0     19683000   -69.891168 0.0044586014    843.00779    843.00779 
      45            0     19683000   -48.768917 0.0044586014    724.16961    724.16961 
      46            0     19683000   -53.771049 0.0044586014    578.32272    578.32272 
      47            0     19683000   -68.673092 0.0044586014    426.72741    426.72741 
      48            0     19683000   -63.606302 0.0044586014    273.92586    273.92586 
      49            0     19683000   -36.205321 0.0044586014     132.9694     132.9694 
      50            0     19683000   -22.051098 0.0044586014    38.229557    38.229557 
      51            0     19683000   -27.925587 0.0044586014   -32.166418   -32.166418 
      52            0     19683000   -35.767503 0.0044586014   -83.716167   -83.716167 
      53            0     19683000   -32.613663 0.0044586014   -118.47821   -118.47821 
      54            0     19683000   -22.559539 0.0044586014   -145.17519   -145.17519 
      55            0     19683000   -16.342652 0.0044586014   -166.47496   -166.47496 
      56            0     19683000   -19.668509 0.0044586014   -185.21469   -185.21469 
      57            0     19683000   -25.650048 0.0044586014   -208.28521   -208.28521 
      58            0     19683000   -21.555858 0.0044586014   -227.07063   -227.07063 
      59            0     19683000   -10.551595 0.0044586014   -250.72737   -250.72737 
      60            0     19683000   -7.9117397 0.0044586014   -270.86397   -270.86397 
      61            0     19683000    -13.03634 0.0044586014    -296.3783    -296.3783 
      62            0     19683000   -14.712564 0.0044586014   -312.34041   -312.34041 
      63            0     19683000    -9.456746 0.0044586014   -325.81289   -325.81289 
      64            0     19683000   -3.9320947 0.0044586014   -335.51153   -335.51153 
      65            0     19683000   -3.4859656 0.0044586014    -342.8431    -342.8431 
      66            0     19683000   -6.3804119 0.0044586014   -349.62776   -349.62776 
      67            0     19683000   -6.9243012 0.0044586014   -354.11383   -354.11383 
      68            0     19683000   -3.3017996 0.0044586014   -359.32959   -359.32959 
      69            0     19683000  -0.20485512 0.0044586014   -363.92297   -363.92297 
      70            0     19683000    -1.433931 0.0044586014   -370.45123   -370.45123 
      71            0     19683000   -3.9293738 0.0044586014   -376.58396   -376.58396 
      72            0     19683000   -2.2195296 0.0044586014   -383.43377   -383.43377 
      73            0     19683000    1.9483173 0.0044586014   -390.42885   -390.42885 
      74            0     19683000    3.4886899 0.0044586014   -396.77808   -396.77808 
      75            0     19683000    1.9057625 0.0044586014   -402.02835   -402.02835 
      76            0     19683000   0.94880864 0.0044586014   -406.04102   -406.04102 
      77            0     19683000    3.0865476 0.0044586014   -409.79998   -409.79998 
      78            0     19683000    5.4460252 0.0044586014   -413.00784   -413.00784 
      79            0     19683000     4.988047 0.0044586014   -415.69912   -415.69912 
      80            0     19683000    3.2697143 0.0044586014   -418.68855   -418.68855 
      81            0     19683000    3.4953133 0.0044586014   -421.52031   -421.52031 
      82            0     19683000    5.7705783 0.0044586014    -425.6428    -425.6428 
      83            0     19683000    6.3246419 0.0044586014   -429.79114   -429.79114 
      84            0     19683000    4.3922246 0.0044586014   -434.15488   -434.15488 
      85            0     19683000    3.4243458 0.0044586014   -437.94432   -437.94432 
      86            0     19683000     5.477228 0.0044586014   -441.71716   -441.71716 
      87            0     19683000    7.2923215 0.0044586014   -446.27821   -446.27821 
      88            0     19683000     5.547158 0.0044586014   -449.71042   -449.71042 
      89            0     19683000    4.3008589 0.0044586014   -452.44293   -452.44293 
      90            0     19683000    5.6477005 0.0044586014   -454.84899   -454.84899 
      91            0     19683000     6.618766 0.0044586014   -457.40122   -457.40122 
      92            0     19683000    5.5603608 0.0044586014    -460.2992    -460.2992 
      93            0     19683000     4.599689 0.0044586014   -462.41752   -462.41752 
      94            0     19683000    4.4694609 0.0044586014   -464.81055   -464.81055 
      95            0     19683000    4.8336236 0.0044586014   -467.11487   -467.11487 
      96            0     19683000     4.755629 0.0044586014   -470.46732   -470.46732 
      97            0     19683000    4.3591049 0.0044586014   -472.65383   -472.65383 
      98            0     19683000    3.8646367 0.0044586014   -475.18333   -475.18333 
      99            0     19683000    3.4968428 0.0044586014   -476.98197   -476.98197 
     100            0     19683000    3.1131569 0.0044586014   -479.61004   -479.61004 
     101            0     19683000    3.1774746 0.0044586014   -481.43311   -481.43311 
     102            0     19683000    3.1606983 0.0044586014   -483.12683   -483.12683 
     103            0     19683000    2.4090549 0.0044586014   -484.57153   -484.57153 
     104            0     19683000    1.5311227 0.0044586014   -486.03507   -486.03507 
     105            0     19683000    1.4893604 0.0044586014   -487.69839   -487.69839 
     106            0     19683000    1.7529386 0.0044586014   -489.02854   -489.02854 
     107            0     19683000    1.3633594 0.0044586014   -490.34924   -490.34924 
     108            0     19683000   0.47122096 0.0044586014   -491.72745   -491.72745 
     109            0     19683000  0.093375087 0.0044586014   -493.03622   -493.03622 
     110            0     19683000   0.19957585 0.0044586014   -494.53503   -494.53503 
     111            0     19683000   0.11166024 0.0044586014     -495.517     -495.517 
     112            0     19683000  -0.40092179 0.0044586014   -496.78856   -496.78856 
     113            0     19683000   -0.7649339 0.0044586014   -497.78697   -497.78697 
     114            0     19683000    -1.064709 0.0044586014   -499.13337   -499.13337 
     115            0     19683000   -1.1940841 0.0044586014   -500.05931   -500.05931 
     116            0     19683000   -1.1920329 0.0044586014     -500.967     -500.967 
     117            0     19683000    -1.228443 0.0044586014   -501.93776   -501.93776 
     118            0     19683000   -1.5496959 0.0044586014    -502.9291    -502.9291 
     119            0     19683000   -1.9352545 0.0044586014   -503.92224   -503.92224 
     120            0     19683000   -1.8992985 0.0044586014   -504.54986   -504.54986 
     121            0     19683000   -1.6157947 0.0044586014   -505.31845   -505.31845 
     122            0     19683000    -1.643108 0.0044586014   -506.06204   -506.06204 
     123            0     19683000   -2.1254152 0.0044586014    -506.9628    -506.9628 
     124            0     19683000     -2.48723 0.0044586014   -507.77677   -507.77677 
     125            0     19683000   -2.2750959 0.0044586014   -508.37509   -508.37509 
     126            0     19683000   -1.6680783 0.0044586014   -509.22244   -509.22244 
     127            0     19683000   -1.7882154 0.0044586014   -510.00282   -510.00282 
     128            0     19683000   -2.5287639 0.0044586014   -510.90402   -510.90402 
     129            0     19683000   -2.6124823 0.0044586014   -511.40876   -511.40876 
     130            0     19683000   -2.0006545 0.0044586014   -511.99108   -511.99108 
     131            0     19683000   -1.5945801 0.0044586014   -512.66852   -512.66852 
     132            0     19683000   -2.0583928 0.0044586014    -513.2587    -513.2587 
     133            0     19683000   -2.6285993 0.0044586014   -513.84783   -513.84783 
     134            0     19683000   -2.3759657 0.0044586014   -514.34786   -514.34786 
     135            0     19683000   -1.4408768 0.0044586014   -515.05216   -515.05216 
     136            0     19683000   -1.2628616 0.0044586014   -515.66068   -515.66068 
     137            0     19683000   -1.9679909 0.0044586014   -516.35311   -516.35311 
     138            0     19683000   -2.2081854 0.0044586014   -516.86701   -516.86701 
     139            0     19683000    -1.370794 0.0044586014   -517.47515   -517.47515 
     140            0     19683000  -0.54345357 0.0044586014   -518.17158   -518.17158 
     141            0     19683000  -0.96984456 0.0044586014   -518.66746   -518.66746 
     142            0     19683000   -1.5521135 0.0044586014   -519.09708   -519.09708 
     143            0     19683000   -1.2471609 0.0044586014   -519.62946   -519.62946 
     144            0     19683000  -0.49270191 0.0044586014   -520.20316   -520.20316 
     145            0     19683000  -0.35663403 0.0044586014   -520.63283   -520.63283 
     146            0     19683000   -0.7423223 0.0044586014   -521.00107   -521.00107 
     147            0     19683000   -1.0709302 0.0044586014   -521.73695   -521.73695 
     148            0     19683000  -0.31423948 0.0044586014   -522.34029   -522.34029 
     149            0     19683000   0.44343979 0.0044586014   -522.78401   -522.78401 
     150            0     19683000   0.39619283 0.0044586014   -523.21395   -523.21395 
     151            0     19683000  -0.22449285 0.0044586014   -523.96383   -523.96383 
     152            0     19683000  -0.16772029 0.0044586014   -524.49882   -524.49882 
     153            0     19683000   0.85088281 0.0044586014   -524.94348   -524.94348 
     154            0     19683000    1.2608526 0.0044586014   -525.25542   -525.25542 
     155            0     19683000   0.50060943 0.0044586014   -525.84526   -525.84526 
     156            0     19683000   0.12855404 0.0044586014   -526.25141   -526.25141 
     157            0     19683000   0.71529733 0.0044586014   -526.58381   -526.58381 
     158            0     19683000    1.4547515 0.0044586014   -526.85739   -526.85739 
     159            0     19683000    1.4519171 0.0044586014   -527.18454   -527.18454 
     160            0     19683000    0.5381024 0.0044586014   -527.61129   -527.61129 
     161            0     19683000   0.43990361 0.0044586014   -527.89015   -527.89015 
     162            0     19683000    1.6677738 0.0044586014    -528.2453    -528.2453 
     163            0     19683000    2.0904875 0.0044586014   -528.55104   -528.55104 
     164            0     19683000   0.89241173 0.0044586014   -529.01681   -529.01681 
     165            0     19683000   0.35142059 0.0044586014   -529.33387   -529.33387 
     166            0     19683000    1.2707297 0.0044586014   -529.73444   -529.73444 
     167            0     19683000    1.9575553 0.0044586014   -530.09645   -530.09645 
     168            0     19683000    1.1585002 0.0044586014   -530.39957   -530.39957 
     169            0     19683000   0.35639583 0.0044586014   -530.69776   -530.69776 
     170            0     19683000   0.84152209 0.0044586014   -531.08745   -531.08745 
     171            0     19683000    1.5089747 0.0044586014    -531.3817    -531.3817 
     172            0     19683000    1.3627843 0.0044586014    -531.5945    -531.5945 
     173            0     19683000   0.53922561 0.0044586014   -531.91598   -531.91598 
     174            0     19683000   0.13618691 0.0044586014   -532.35622   -532.35622 
     175            0     19683000   0.86808244 0.0044586014   -532.71263   -532.71263 
     176            0     19683000    1.3229724 0.0044586014   -532.98256   -532.98256 
     177            0     19683000   0.59075139 0.0044586014   -533.36958   -533.36958 
     178            0     19683000  -0.38844453 0.0044586014   -533.91651   -533.91651 
     179            0     19683000  0.070580815 0.0044586014   -534.28619   -534.28619 
     180            0     19683000   0.76596395 0.0044586014   -534.52974   -534.52974 
     181            0     19683000   0.72111428 0.0044586014   -534.77121   -534.77121 
     182            0     19683000   -0.2355225 0.0044586014   -535.17342   -535.17342 
     183            0     19683000   -0.4894579 0.0044586014   -535.44171   -535.44171 
     184            0     19683000   0.12519858 0.0044586014   -535.63273   -535.63273 
     185            0     19683000   0.50701582 0.0044586014   -535.81505   -535.81505 
     186            0     19683000 -0.089758338 0.0044586014   -536.06071   -536.06071 
     187            0     19683000  -0.79157623 0.0044586014   -536.29691   -536.29691 
     188            0     19683000  -0.60186213 0.0044586014   -536.47972   -536.47972 
     189            0     19683000  0.040042524 0.0044586014   -536.70768   -536.70768 
     190            0     19683000 -0.066622501 0.0044586014   -536.89989   -536.89989 
     191            0     19683000  -0.79043843 0.0044586014   -537.14131   -537.14131 
     192            0     19683000   -1.0605084 0.0044586014   -537.37981   -537.37981 
     193            0     19683000  -0.55763144 0.0044586014   -537.63064   -537.63064 
     194            0     19683000  -0.24448794 0.0044586014   -537.81943   -537.81943 
     195            0     19683000  -0.60118247 0.0044586014    -538.0043    -538.0043 
     196            0     19683000   -1.1591537 0.0044586014   -538.22538   -538.22538 
     197            0     19683000   -1.1389146 0.0044586014   -538.43871   -538.43871 
     198            0     19683000  -0.57539217 0.0044586014   -538.62416   -538.62416 
     199            0     19683000  -0.47427903 0.0044586014   -538.74228   -538.74228 
     200            0     19683000   -1.0534242 0.0044586014   -538.95849   -538.95849 
     201            0     19683000   -1.3206732 0.0044586014   -539.19002   -539.19002 
     202            0     19683000  -0.76725593 0.0044586014   -539.36629   -539.36629 
     203            0     19683000  -0.36313338 0.0044586014   -539.49018   -539.49018 
     204            0     19683000  -0.76356654 0.0044586014   -539.69826   -539.69826 
     205            0     19683000   -1.2691962 0.0044586014   -539.95508   -539.95508 
     206            0     19683000  -0.83690376 0.0044586014   -540.13555   -540.13555 
     207            0     19683000   -0.3802051 0.0044586014   -540.25043   -540.25043 
     208            0     19683000  -0.44956827 0.0044586014   -540.40143   -540.40143 
     209            0     19683000  -0.84711662 0.0044586014    -540.5427    -540.5427 
     210            0     19683000  -0.94720616 0.0044586014   -540.65332   -540.65332 
     211            0     19683000  -0.52566611 0.0044586014   -540.74461   -540.74461 
     212            0     19683000  -0.26482474 0.0044586014   -540.80754   -540.80754 
     213            0     19683000  -0.50499359 0.0044586014   -540.88864   -540.88864 
     214            0     19683000  -0.82958963 0.0044586014   -540.98559   -540.98559 
     215            0     19683000  -0.58324026 0.0044586014   -541.07597   -541.07597 
     216            0     19683000  -0.11694656 0.0044586014   -541.15736   -541.15736 
     217            0     19683000  -0.11662403 0.0044586014   -541.23647   -541.23647 
     218            0     19683000  -0.54119364 0.0044586014   -541.36981   -541.36981 
     219            0     19683000  -0.46098716 0.0044586014   -541.45486   -541.45486 
     220            0     19683000     0.118439 0.0044586014   -541.56421   -541.56421 
     221            0     19683000   0.12855333 0.0044586014   -541.62153   -541.62153 
     222            0     19683000  -0.17944345 0.0044586014   -541.70246   -541.70246 
     223            0     19683000  -0.14471382 0.0044586014    -541.7695    -541.7695 
     224            0     19683000  0.079969368 0.0044586014   -541.83892   -541.83892 
     225            0     19683000   0.15222717 0.0044586014   -541.89065   -541.89065 
     226            0     19683000  0.079106709 0.0044586014   -541.93451   -541.93451 
     227            0     19683000 0.0058109686 0.0044586014   -542.02203   -542.02203 
     228            0     19683000   0.13019821 0.0044586014   -542.10618   -542.10618 
     229            0     19683000   0.27721535 0.0044586014   -542.18101   -542.18101 
     230            0     19683000   0.31618166 0.0044586014   -542.23644   -542.23644 
     231            0     19683000    0.3420581 0.0044586014   -542.35461   -542.35461 
     232            0     19683000   0.34222618 0.0044586014    -542.4506    -542.4506 
     233            0     19683000   0.34781542 0.0044586014   -542.53236   -542.53236 
     234            0     19683000   0.43724985 0.0044586014   -542.59141   -542.59141 
     235            0     19683000    0.5690031 0.0044586014   -542.66684   -542.66684 
     236            0     19683000   0.54802627 0.0044586014   -542.76121   -542.76121 
     237            0     19683000   0.43733612 0.0044586014   -542.83142   -542.83142 
     238            0     19683000   0.44934682 0.0044586014   -542.88799   -542.88799 
     239            0     19683000   0.58195222 0.0044586014   -542.94821   -542.94821 
     240            0     19683000   0.72943271 0.0044586014   -543.05168   -543.05168 
     241            0     19683000   0.66012501 0.0044586014   -543.12444   -543.12444 
     242            0     19683000     0.497101 0.0044586014   -543.18793   -543.18793 
     243            0     19683000     0.531605 0.0044586014    -543.2662    -543.2662 
     244            0     19683000   0.72650504 0.0044586014   -543.36467   -543.36467 
     245            0     19683000   0.70018036 0.0044586014   -543.47142   -543.47142 
     246            0     19683000   0.53207453 0.0044586014   -543.53306   -543.53306 
     247            0     19683000   0.39308382 0.0044586014   -543.63772   -543.63772 
     248            0     19683000   0.48916097 0.0044586014   -543.74543   -543.74543 
     249            0     19683000   0.60531808 0.0044586014   -543.85306   -543.85306 
     250            0     19683000   0.54286696 0.0044586014   -543.92187   -543.92187 
     251            0     19683000   0.34478581 0.0044586014   -544.01104   -544.01104 
     252            0     19683000   0.25373209 0.0044586014   -544.12672   -544.12672 
     253            0     19683000   0.39582942 0.0044586014   -544.20405   -544.20405 
     254            0     19683000   0.45543454 0.0044586014   -544.26623   -544.26623 
     255            0     19683000   0.27857694 0.0044586014   -544.32927   -544.32927 
     256            0     19683000  0.047673956 0.0044586014   -544.43058   -544.43058 
     257            0     19683000   0.12799107 0.0044586014   -544.48694   -544.48694 
     258            0     19683000   0.28618447 0.0044586014   -544.54973   -544.54973 
     259            0     19683000   0.19989721 0.0044586014   -544.60653   -544.60653 
     260            0     19683000 -0.098288775 0.0044586014   -544.70759   -544.70759 
     261            0     19683000 -0.091708556 0.0044586014   -544.76885   -544.76885 
     262            0     19683000   0.09213808 0.0044586014   -544.82955   -544.82955 
     263            0     19683000   0.11640632 0.0044586014   -544.89327   -544.89327 
     264            0     19683000  -0.12296728 0.0044586014    -544.9761    -544.9761 
     265            0     19683000  -0.28752746 0.0044586014   -545.04903   -545.04903 
     266            0     19683000  -0.22264515 0.0044586014   -545.10013   -545.10013 
     267            0     19683000 -0.068310246 0.0044586014   -545.16235   -545.16235 
     268            0     19683000 -0.085523691 0.0044586014   -545.22824   -545.22824 
     269            0     19683000   -0.3380475 0.0044586014   -545.30023   -545.30023 
     270            0     19683000  -0.43475225 0.0044586014   -545.34733   -545.34733 
     271            0     19683000  -0.24538571 0.0044586014   -545.40253   -545.40253 
     272            0     19683000 -0.098590801 0.0044586014   -545.46295   -545.46295 
     273            0     19683000  -0.30312532 0.0044586014   -545.52458   -545.52458 
     274            0     19683000  -0.52698114 0.0044586014   -545.57236   -545.57236 
     275            0     19683000  -0.48446279 0.0044586014   -545.61726   -545.61726 
     276            0     19683000  -0.19073773 0.0044586014   -545.69296   -545.69296 
     277            0     19683000   -0.2074143 0.0044586014    -545.7507    -545.7507 
     278            0     19683000  -0.53370076 0.0044586014   -545.81819   -545.81819 
     279            0     19683000  -0.65034845 0.0044586014   -545.87472   -545.87472 
     280            0     19683000  -0.39034138 0.0044586014   -545.95919   -545.95919 
     281            0     19683000  -0.11378093 0.0044586014   -546.03821   -546.03821 
     282            0     19683000  -0.29205846 0.0044586014   -546.09144   -546.09144 
     283            0     19683000  -0.69683189 0.0044586014    -546.1522    -546.1522 
     284            0     19683000  -0.55729357 0.0044586014   -546.20828   -546.20828 
     285            0     19683000  -0.14051354 0.0044586014   -546.27436   -546.27436 
     286            0     19683000  -0.26418785 0.0044586014   -546.31148   -546.31148 
     287            0     19683000  -0.61646847 0.0044586014   -546.36231   -546.36231 
     288            0     19683000  -0.57297249 0.0044586014    -546.4286    -546.4286 
     289            0     19683000  -0.18694058 0.0044586014   -546.49206   -546.49206 
     290            0     19683000 -0.028273598 0.0044586014   -546.54259   -546.54259 
     291            0     19683000  -0.30396906 0.0044586014   -546.60506   -546.60506 
     292            0     19683000   -0.6196932 0.0044586014    -546.7034    -546.7034 
     293            0     19683000   -0.2769109 0.0044586014   -546.77583   -546.77583 
     294            0     19683000    0.1071958 0.0044586014   -546.83246   -546.83246 
     295            0     19683000 -0.0071544882 0.0044586014   -546.89049   -546.89049 
     296            0     19683000  -0.39980021 0.0044586014    -546.9774    -546.9774 
     297            0     19683000  -0.35065496 0.0044586014   -547.04524   -547.04524 
     298            0     19683000  0.068885597 0.0044586014    -547.0966    -547.0966 
     299            0     19683000   0.29217619 0.0044586014   -547.14894   -547.14894 
     300            0     19683000 -0.039227481 0.0044586014   -547.23117   -547.23117 
     301            0     19683000  -0.27748563 0.0044586014   -547.30589   -547.30589 
     302            0     19683000 -0.019143565 0.0044586014   -547.35695   -547.35695 
     303            0     19683000   0.42797213 0.0044586014   -547.42446   -547.42446 
     304            0     19683000   0.33859906 0.0044586014   -547.49724   -547.49724 
     305            0     19683000  -0.13683003 0.0044586014    -547.5862    -547.5862 
     306            0     19683000  -0.12166949 0.0044586014   -547.63468   -547.63468 
     307            0     19683000   0.38204509 0.0044586014   -547.71384   -547.71384 
     308            0     19683000    0.5799455 0.0044586014   -547.80061   -547.80061 
     309            0     19683000   0.20877026 0.0044586014   -547.89911   -547.89911 
     310            0     19683000 -0.063034285 0.0044586014    -547.9737    -547.9737 
     311            0     19683000   0.18510007 0.0044586014   -548.06244   -548.06244 
     312            0     19683000   0.71349171 0.0044586014   -548.19415   -548.19415 
     313            0     19683000   0.55366303 0.0044586014   -548.30375   -548.30375 
     314            0     19683000   0.11117096 0.0044586014   -548.39019   -548.39019 
     315            0     19683000  -0.06032504 0.0044586014   -548.48283   -548.48283 
     316            0     19683000   0.42031442 0.0044586014    -548.6101    -548.6101 
     317            0     19683000   0.66983379 0.0044586014    -548.7126    -548.7126 
     318            0     19683000   0.18310697 0.0044586014   -548.79691   -548.79691 
     319            0     19683000  -0.23571138 0.0044586014   -548.89153   -548.89153 
     320            0     19683000   0.15955957 0.0044586014   -549.02725   -549.02725 
     321            0     19683000   0.61467906 0.0044586014   -549.14616   -549.14616 
     322            0     19683000   0.28141585 0.0044586014   -549.23465   -549.23465 
     323            0     19683000  -0.44124901 0.0044586014   -549.38295   -549.38295 
     324            0     19683000  -0.16043011 0.0044586014   -549.54874   -549.54874 
     325            0     19683000   0.41011645 0.0044586014    -549.6941    -549.6941 
     326            0     19683000   0.21666289 0.0044586014   -549.80387   -549.80387 
     327            0     19683000  -0.54486539 0.0044586014   -549.99392   -549.99392 
     328            0     19683000  -0.55099079 0.0044586014   -550.16541   -550.16541 
     329            0     19683000  0.047106822 0.0044586014   -550.31316   -550.31316 
     330            0     19683000    0.2028505 0.0044586014    -550.4151    -550.4151 
     331            0     19683000  -0.27049874 0.0044586014   -550.58907   -550.58907 
     332            0     19683000  -0.64199127 0.0044586014   -550.75534   -550.75534 
     333            0     19683000  -0.38575317 0.0044586014   -550.86429   -550.86429 
     334            0     19683000  0.094893901 0.0044586014   -550.96631   -550.96631 
     335            0     19683000  0.031335772 0.0044586014   -551.08467   -551.08467 
     336            0     19683000  -0.58459046 0.0044586014   -551.24231   -551.24231 
     337            0     19683000  -0.65079706 0.0044586014   -551.33507   -551.33507 
     338            0     19683000  -0.16248653 0.0044586014   -551.44248   -551.44248 
     339            0     19683000  0.061036192 0.0044586014   -551.56985   -551.56985 
     340            0     19683000   -0.5096162 0.0044586014   -551.74283   -551.74283 
     341            0     19683000   -0.7848767 0.0044586014   -551.85363   -551.85363 
     342            0     19683000  -0.48587558 0.0044586014   -551.97345   -551.97345 
     343            0     19683000  -0.16652556 0.0044586014    -552.1361    -552.1361 
     344            0     19683000  -0.43174316 0.0044586014   -552.28973   -552.28973 
     345            0     19683000  -0.75641014 0.0044586014   -552.39977   -552.39977 
     346            0     19683000  -0.77920133 0.0044586014   -552.48917   -552.48917 
     347            0     19683000  -0.48503921 0.0044586014   -552.63292   -552.63292 
     348            0     19683000  -0.45482072 0.0044586014   -552.72856   -552.72856 
     349            0     19683000  -0.74853754 0.0044586014   -552.82533   -552.82533 
     350            0     19683000  -0.83277856 0.0044586014   -552.90006   -552.90006 
     351            0     19683000  -0.62453362 0.0044586014   -553.02994   -553.02994 
     352            0     19683000  -0.49969064 0.0044586014   -553.13875   -553.13875 
     353            0     19683000  -0.57681273 0.0044586014    -553.2177    -553.2177 
     354            0     19683000  -0.70987231 0.0044586014    -553.3321    -553.3321 
     355            0     19683000  -0.64511224 0.0044586014   -553.44501   -553.44501 
     356            0     19683000  -0.45175755 0.0044586014   -553.55261   -553.55261 
     357            0     19683000  -0.39665887 0.0044586014   -553.61343   -553.61343 
     358            0     19683000  -0.47076206 0.0044586014   -553.71202   -553.71202 
     359            0     19683000  -0.51419866 0.0044586014   -553.80224   -553.80224 
     360            0     19683000  -0.41905723 0.0044586014   -553.86987   -553.86987 
     361            0     19683000  -0.28250613 0.0044586014   -553.92801   -553.92801 
     362            0     19683000  -0.25813442 0.0044586014   -553.99636   -553.99636 
     363            0     19683000  -0.32229043 0.0044586014   -554.08698   -554.08698 
     364            0     19683000  -0.32054736 0.0044586014   -554.14135   -554.14135 
     365            0     19683000  -0.21618114 0.0044586014   -554.18622   -554.18622 
     366            0     19683000 -0.053933881 0.0044586014   -554.24619   -554.24619 
     367            0     19683000  -0.10473307 0.0044586014   -554.31535   -554.31535 
     368            0     19683000    -0.200164 0.0044586014   -554.35821   -554.35821 
     369            0     19683000   -0.1155752 0.0044586014   -554.40107   -554.40107 
     370            0     19683000  0.059977312 0.0044586014   -554.45584   -554.45584 
     371            0     19683000  0.053499661 0.0044586014   -554.52096   -554.52096 
     372            0     19683000 -0.043773667 0.0044586014   -554.57215   -554.57215 
     373            0     19683000 -0.0024265969 0.0044586014   -554.61099   -554.61099 
     374            0     19683000   0.15994775 0.0044586014   -554.67884   -554.67884 
     375            0     19683000   0.17622279 0.0044586014    -554.7305    -554.7305 
     376            0     19683000   0.13808016 0.0044586014   -554.77875   -554.77875 
     377            0     19683000    0.1642482 0.0044586014   -554.81292   -554.81292 
     378            0     19683000   0.24213953 0.0044586014   -554.87096   -554.87096 
     379            0     19683000   0.27331754 0.0044586014   -554.91422   -554.91422 
     380            0     19683000   0.28209714 0.0044586014   -554.95294   -554.95294 
     381            0     19683000   0.29063811 0.0044586014   -554.99323   -554.99323 
     382            0     19683000   0.30097396 0.0044586014   -555.05855   -555.05855 
     383            0     19683000   0.30864116 0.0044586014   -555.11118   -555.11118 
     384            0     19683000   0.34235877 0.0044586014   -555.15458   -555.15458 
     385            0     19683000   0.40993098 0.0044586014   -555.21457   -555.21457 
     386            0     19683000   0.40947503 0.0044586014   -555.27928   -555.27928 
     387            0     19683000    0.3413113 0.0044586014   -555.34319   -555.34319 
     388            0     19683000   0.36200296 0.0044586014   -555.38084   -555.38084 
     389            0     19683000   0.50701552 0.0044586014   -555.44277   -555.44277 
     390            0     19683000   0.52136139 0.0044586014   -555.50674   -555.50674 
     391            0     19683000   0.34339947 0.0044586014   -555.56599   -555.56599 
     392            0     19683000   0.29869303 0.0044586014   -555.60638   -555.60638 
     393            0     19683000   0.47433453 0.0044586014   -555.67207   -555.67207 
     394            0     19683000   0.54577688 0.0044586014   -555.74969   -555.74969 
     395            0     19683000   0.36282839 0.0044586014   -555.80489   -555.80489 
     396            0     19683000   0.22081408 0.0044586014   -555.85219   -555.85219 
     397            0     19683000   0.29014878 0.0044586014    -555.9109    -555.9109 
     398            0     19683000   0.44782444 0.0044586014   -555.98038   -555.98038 
     399            0     19683000   0.41428754 0.0044586014   -556.02504   -556.02504 
     400            0     19683000   0.22219261 0.0044586014   -556.06749   -556.06749 
     401            0     19683000  0.091385547 0.0044586014   -556.12843   -556.12843 
     402            0     19683000   0.23574911 0.0044586014   -556.18883   -556.18883 
     403            0     19683000   0.34903076 0.0044586014   -556.23481   -556.23481 
     404            0     19683000   0.23450319 0.0044586014   -556.27611   -556.27611 
     405            0     19683000 -0.035553089 0.0044586014   -556.35245   -556.35245 
     406            0     19683000  0.005310171 0.0044586014   -556.40666   -556.40666 
     407            0     19683000   0.19593587 0.0044586014   -556.44644   -556.44644 
     408            0     19683000    0.2374435 0.0044586014   -556.47998   -556.47998 
     409            0     19683000 0.0010330409 0.0044586014    -556.5326    -556.5326 
     410            0     19683000  -0.13949995 0.0044586014   -556.57306   -556.57306 
     411            0     19683000 -0.0022410283 0.0044586014    -556.6003    -556.6003 
     412            0     19683000   0.16054594 0.0044586014    -556.6284    -556.6284 
     413            0     19683000  0.049998524 0.0044586014    -556.6678    -556.6678 
     414            0     19683000  -0.19204885 0.0044586014   -556.70624   -556.70624 
     415            0     19683000  -0.18795704 0.0044586014   -556.73062   -556.73062 
     416            0     19683000  0.051822695 0.0044586014   -556.76523   -556.76523 
     417            0     19683000  0.093095585 0.0044586014    -556.7986    -556.7986 
     418            0     19683000  -0.19798103 0.0044586014   -556.83318   -556.83318 
     419            0     19683000  -0.28159125 0.0044586014   -556.85096   -556.85096 
     420            0     19683000 -0.085584612 0.0044586014   -556.87913   -556.87913 
     421            0     19683000 0.0052562449 0.0044586014   -556.90248   -556.90248 
     422            0     19683000  -0.14494597 0.0044586014   -556.92222   -556.92222 
     423            0     19683000  -0.31089708 0.0044586014   -556.93802   -556.93802 
     424            0     19683000  -0.26611538 0.0044586014   -556.95698   -556.95698 
     425            0     19683000 0.0014320791 0.0044586014   -556.98633   -556.98633 
     426            0     19683000  -0.05936718 0.0044586014   -557.00006   -557.00006 
     427            0     19683000  -0.34112763 0.0044586014   -557.02066   -557.02066 
     428            0     19683000  -0.30242677 0.0044586014   -557.04208   -557.04208 
     429            0     19683000 -0.040193463 0.0044586014   -557.06859   -557.06859 
     430            0     19683000  -0.06739696 0.0044586014   -557.08057   -557.08057 
     431            0     19683000  -0.24049907 0.0044586014   -557.09553   -557.09553 
     432            0     19683000   -0.3125817 0.0044586014    -557.1167    -557.1167 
     433            0     19683000  -0.13487029 0.0044586014   -557.13175   -557.13175 
     434            0     19683000 -0.0030224424 0.0044586014   -557.14108   -557.14108 
     435            0     19683000 -0.069531871 0.0044586014   -557.15347   -557.15347 
     436            0     19683000  -0.24811397 0.0044586014   -557.17525   -557.17525 
     437            0     19683000  -0.17824376 0.0044586014    -557.1875    -557.1875 
     438            0     19683000  0.078493626 0.0044586014   -557.19902   -557.19902 
     439            0     19683000  0.093879287 0.0044586014   -557.20979   -557.20979 
     440            0     19683000  -0.15978971 0.0044586014   -557.23255   -557.23255 
     441            0     19683000  -0.13040948 0.0044586014   -557.24246   -557.24246 
     442            0     19683000  0.070785352 0.0044586014   -557.25143   -557.25143 
     443            0     19683000   0.16287654 0.0044586014   -557.26123   -557.26123 
     444            0     19683000  0.001106927 0.0044586014    -557.2748    -557.2748 
     445            0     19683000 -0.073284253 0.0044586014   -557.28379   -557.28379 
     446            0     19683000  0.052685953 0.0044586014   -557.29189   -557.29189 
     447            0     19683000   0.18636405 0.0044586014   -557.30145   -557.30145 
     448            0     19683000   0.13345774 0.0044586014   -557.31185   -557.31185 
     449            0     19683000  0.019739216 0.0044586014   -557.32054   -557.32054 
     450            0     19683000 0.0059580397 0.0044586014   -557.32858   -557.32858 
     451            0     19683000   0.11609161 0.0044586014   -557.33895   -557.33895 
     452            0     19683000   0.20071455 0.0044586014   -557.34978   -557.34978 
     453            0     19683000   0.12734473 0.0044586014   -557.35741   -557.35741 
     454            0     19683000 0.0088444735 0.0044586014   -557.36699   -557.36699 
     455            0     19683000   0.05489116 0.0044586014   -557.37862   -557.37862 
     456            0     19683000   0.20549025 0.0044586014   -557.39145   -557.39145 
     457            0     19683000   0.20916822 0.0044586014   -557.39908   -557.39908 
     458            0     19683000  0.073244403 0.0044586014   -557.40967   -557.40967 
     459            0     19683000 0.0072241187 0.0044586014   -557.42109   -557.42109 
     460            0     19683000   0.13466121 0.0044586014   -557.43433   -557.43433 
     461            0     19683000   0.22360723 0.0044586014   -557.44187   -557.44187 
     462            0     19683000   0.14844907 0.0044586014   -557.45138   -557.45138 
     463            0     19683000 -0.013696336 0.0044586014   -557.46497   -557.46497 
     464            0     19683000  0.043261237 0.0044586014   -557.47691   -557.47691 
     465            0     19683000   0.19844622 0.0044586014   -557.48551   -557.48551 
     466            0     19683000   0.20497573 0.0044586014   -557.49372   -557.49372 
     467            0     19683000  0.015831661 0.0044586014    -557.5083    -557.5083 
     468            0     19683000 -0.014222429 0.0044586014   -557.51815   -557.51815 
     469            0     19683000   0.14931613 0.0044586014   -557.52698   -557.52698 
     470            0     19683000   0.20584278 0.0044586014   -557.53351   -557.53351 
     471            0     19683000  0.041846549 0.0044586014   -557.54446   -557.54446 
     472            0     19683000 -0.050384772 0.0044586014   -557.55298   -557.55298 
     473            0     19683000  0.065833067 0.0044586014   -557.56103   -557.56103 
     474            0     19683000    0.1614768 0.0044586014   -557.56758   -557.56758 
     475            0     19683000   0.06404295 0.0044586014    -557.5762    -557.5762 
     476            0     19683000 -0.065847604 0.0044586014   -557.58533   -557.58533 
     477            0     19683000 -0.024774114 0.0044586014   -557.59279   -557.59279 
     478            0     19683000  0.091287462 0.0044586014   -557.59982   -557.59982 
     479            0     19683000  0.093087208 0.0044586014   -557.60638   -557.60638 
     480            0     19683000 -0.030909404 0.0044586014   -557.61321   -557.61321 
     481            0     19683000 -0.087652601 0.0044586014   -557.61843   -557.61843 
Loop time of 0.724383 on 64 procs for 481 steps with 3750 atoms

98.6% CPU use with 64 MPI tasks x 1 OpenMP threads

Minimization stats:
  Stopping criterion = energy tolerance
  Energy initial, next-to-last, final = 
         283755.854276     -557.613213866     -557.618427792
  Force two-norm initial, final = 167200 2.72618
  Force max component initial, final = 4212.36 0.129068
  Final line search alpha, max atom move = 0.0775104 0.0100041
  Iterations, force evaluations = 481 943

MPI task timing breakdown:
Section |  min time  |  avg time  |  max time  |%varavg| %total
---------------------------------------------------------------
Pair    | 0.0046179  | 0.010327   | 0.021791   |   3.9 |  1.43
Bond    | 0.01023    | 0.022271   | 0.044843   |   5.5 |  3.07
Neigh   | 0.0059762  | 0.0067975  | 0.0074313  |   0.4 |  0.94
Comm    | 0.0094244  | 0.031893   | 0.057855   |   7.0 |  4.40
Output  | 0.57058    | 0.57098    | 0.57583    |   0.1 | 78.82
Modify  | 0          | 0          | 0          |   0.0 |  0.00
Other   |            | 0.08211    |            |       | 11.34

Nlocal:    58.5938 ave 118 max 30 min
Histogram: 8 23 1 12 6 7 0 4 1 2
Nghost:    41.4531 ave 147 max 0 min
Histogram: 10 22 5 15 4 0 0 2 4 2
Neighs:    275.625 ave 591 max 141 min
Histogram: 10 13 15 8 6 3 3 3 2 1

Total # of neighbors = 17640
Ave neighs/atom = 4.704
Ave special neighs/atom = 6.26667
Neighbor list builds = 43
Dangerous builds = 0
undump         	iphase

timestep       	1
velocity       	all create ${eqmT} 34875304 dist gaussian units box
velocity       	all create 293 34875304 dist gaussian units box
fix	       	ensemble all nve
fix 		thermostat all langevin ${eqmT} ${eqmT} 100.0 39847
fix 		thermostat all langevin 293 ${eqmT} 100.0 39847
fix 		thermostat all langevin 293 293 100.0 39847
fix		compress all deform 1 x scale 0.178 y scale 0.178 z scale 0.178  # the factor 0.178 is chose with some calculation based off on the initial volume and where we need to get to in order to reach in the ballpark of desired density and average ambient pressure
fix		output_pressure all ave/time 10 100 1000 v_pxx v_pyy v_pzz v_pxy v_pxz v_pyz c_thermo_press ave one file outfiles/pressure.tensor.out
fix 		state_variables all ave/time 10 100 1000 c_thermo_temp v_vol v_rho v_etotal v_a v_b v_c ave one file outfiles/state.variables.out
thermo         	10000
thermo_style   	custom step temp vol press density pe etotal
dump           	gphase1 all atom 10000 outfiles/dumpgphase1.atom	#note this will produce a rather heavy movie file of about 100 MB
dump_modify    	gphase1 first yes
dump_modify    	gphase1 scale no
run            	10000000	# you could perform the compression even more slowly if any irregularities arise during the deformation (can be seen in the movie)
Per MPI rank memory allocation (min/avg/max) = 9.298 | 9.369 | 9.948 Mbytes
Step Temp Volume Press Density PotEng TotEng 
     481          293     19683000    7.5166418 0.0044586014   -557.61843    2716.6732 
   10000    293.12851     19636833     0.280391 0.0044690839    2672.2806    5948.0083 
   20000    298.08498     19588410   -2.2697103 0.0044801314    2693.9612    6025.0778 
   30000    295.22416     19540067   -1.4608916 0.0044912154     2759.728    6058.8748 
   40000    290.29787     19491804  -0.47988807  0.004502336    2779.8711    6023.9663 
   50000    292.70518     19443620    3.5411896 0.0045134934    2747.8089     6018.806 
   60000    294.23899     19395516   0.45193825 0.0045246876      2849.18    6137.3174 
   70000    297.55008     19347491   0.93833724 0.0045359189    2817.6312    6142.7703 
   80000    292.02113     19299546   0.63033259 0.0045471874    2795.6335    6058.9863 
   90000    292.26739     19251680   0.35510268 0.0045584932    2809.8984    6076.0031 
  100000    295.66059     19203893    2.1470641 0.0045698366     2765.918    6069.9419 
  110000    290.56176     19156185   0.78417306 0.0045812176    2782.7813    6029.8254 
  120000    289.16338     19108556  -0.54916795 0.0045926365    2817.1632    6048.5805 
  130000    292.71508     19061006   -6.0109363 0.0046040933    2859.6409    6130.7485 
  140000     293.4898     19013536    5.4791616 0.0046155883    2775.4122    6055.1774 
  150000    296.57738     18966144    4.1601829 0.0046271215    2811.2836    6125.5527 
  160000    284.84205     18918831   -1.8549094 0.0046386933    2795.7272    5978.8533 
  170000    288.54376     18871596   -5.9067573 0.0046503036    2828.0515    6052.5444 
  180000    293.65653     18824441    3.1464617 0.0046619527    2668.9808    5950.6091 
  190000    295.75529     18777364   0.19290858 0.0046736408    2754.4763    6059.5585 
  200000    292.53295     18730365   0.41509862 0.0046853679    2816.2757    6085.3481 
  210000    295.69115     18683445   -1.6902242 0.0046971344    2830.8921    6135.2575 
  220000    291.07682     18636603   -4.8644675 0.0047089402    2753.8458    6006.6458 
  230000    288.96771     18589840    2.7093238 0.0047207857    2924.4695    6153.7002 
  240000    289.05068     18543155  -0.54746178 0.0047326709    2703.6423    5933.8001 
  250000    292.01833     18496549    1.5003508 0.0047445961     2839.382    6102.7034 
  260000    296.48738     18450020    3.0815376 0.0047565613    2732.1746     6045.438 
  270000    292.82812     18403570    4.2625874 0.0047685668    2771.0559    6043.4268 
  280000    297.68056     18357197    2.8362617 0.0047806128    2785.6006    6112.1978 
  290000    295.42193     18310903   0.31175473 0.0047926994    2691.0466    5992.4035 
  300000    294.68622     18264686   -4.9787331 0.0048048267    2717.2318     6010.367 
  310000    298.97883     18218547   -2.5032161  0.004816995    2771.8065     6112.912 
  320000    298.37302     18172486    1.5821168 0.0048292044    2796.3487    6130.6842 
  330000    293.42065     18126503    2.4818468 0.0048414551    2771.9228    6050.9153 
  340000    296.13405     18080598   -2.0419266 0.0048537473    2788.7556    6098.0705 
  350000    295.19682     18034770    1.2670258 0.0048660811    2780.2447     6079.086 
  360000    295.65509     17989019    1.9065274 0.0048784568    2693.5196    5997.4821 
  370000     295.1852     17943346    -1.224293 0.0048908744    2762.4603    6061.1717 
  380000     288.1673     17897750   -4.7404305 0.0049033343    2795.1405    6015.4265 
  390000    293.37182     17852232   -2.5292653 0.0049158365    2693.9313    5972.3781 
  400000    294.22291     17806791    8.7725392 0.0049283812    2685.0609    5973.0187 
  410000    290.37502     17761427    3.4687601 0.0049409687    2644.9706    5889.9279 
  420000    293.41467     17716140  0.016906943  0.004953599    2608.1904     5887.116 
  430000    295.21298     17670930   -2.5582735 0.0049662724    2689.6639    5988.6857 
  440000    292.92409     17625797    4.9057373 0.0049789892    2656.2142    5929.6575 
  450000    298.88407     17580741  0.031051714 0.0049917493    2642.3264    5982.3729 
  460000    294.26586     17535762   0.12974575 0.0050045531    2691.8245    5980.2622 
  470000     291.4256     17490859    2.0304462 0.0050174008    2714.5365    5971.2342 
  480000     289.4492     17446034    2.9791788 0.0050302924    2664.6671    5899.2784 
  490000    293.86317     17401285    3.8508534 0.0050432282    2706.8467    5990.7844 
  500000    297.36344     17356613    1.6553799 0.0050562085    2691.1055    6014.1589 
  510000    296.48119     17312017    3.6176674 0.0050692333    2696.8476    6010.0418 
  520000    294.78111     17267497    6.7795624 0.0050823029    2756.1513     6050.347 
  530000     295.0869     17223054   0.37893319 0.0050954175    2686.4249    5984.0377 
  540000    299.01802     17178688   -3.3574535 0.0051085772    2613.0669    5954.6103 
  550000    292.40141     17134397    4.3524413 0.0051217823    2594.1371    5861.7394 
  560000    294.82389     17090183    2.2378526 0.0051350329    2647.6297    5942.3034 
  570000    295.09169     17046045    2.1514771 0.0051483293    2642.3128    5939.9792 
  580000    285.81618     17001983    2.5825396 0.0051616716    2494.0472    5688.0593 
  590000     290.6428     16957997    5.6346906 0.0051750601    2573.7237    5821.6735 
  600000    292.50526     16914087    6.5310909 0.0051884949    2628.8419    5897.6049 
  610000     292.1267     16870252   0.68497012 0.0052019762    2575.0916    5839.6241 
  620000    293.28802     16826494   -5.5875041 0.0052155043    2611.4797      5888.99 
  630000    294.42194     16782811    1.5397891 0.0052290794    2604.5454    5894.7273 
  640000     293.2392     16739204    5.3452315 0.0052427016    2711.7074    5988.6722 
  650000    284.77056     16695673   -1.2916277 0.0052563711    2564.9103    5747.2375 
  660000    287.61588     16652217    3.8135499 0.0052700882    2623.7124    5837.8362 
  670000    288.37976     16608836    2.6589532 0.0052838531    2540.1036    5762.7638 
  680000    293.35833     16565531     3.216151  0.005297666    2615.4555    5893.7515 
  690000    288.69709     16522302   0.65899811 0.0053115271    2566.9927    5793.1991 
  700000     287.4501     16479147    5.6509072 0.0053254365    2522.8412    5735.1125 
  710000    299.26948     16436068   0.43295223 0.0053393946    2582.0395    5926.3929 
  720000    294.15173     16393064   -0.5188159 0.0053534015    2594.9501    5882.1124 
  730000    295.15219     16350135   -1.2945192 0.0053674574    2488.9187    5787.2612 
  740000    293.39605     16307281   0.15075074 0.0053815625    2593.5434    5872.2609 
  750000    297.60037     16264502  -0.77285814 0.0053957172    2558.5161    5884.2172 
  760000    296.61153     16221798    -2.758747 0.0054099215    2507.6943     5822.345 
  770000    287.62833     16179168   -2.0036675 0.0054241757    2601.4205    5815.6834 
  780000    290.34597     16136614    3.0072882 0.0054384801    2558.1286    5802.7613 
  790000    296.95196     16094134   -1.7493119 0.0054528347    2551.1538    5869.6089 
  800000    296.60133     16051728   -4.3752995   0.00546724    2538.2838    5852.8205 
  810000    297.75504     16009398    2.0366633  0.005481696    2590.9861    5918.4156 
  820000    291.29454     15967141   0.96298633 0.0054962031    2578.8347    5834.0677 
  830000    288.04355     15924960    1.3660286 0.0055107613    2561.3881    5780.2911 
  840000    293.37938     15882852   0.53581765 0.0055253711    2619.7707     5898.302 
  850000    290.57611     15840819   0.54936365 0.0055400325    2564.9618    5812.1664 
  860000    290.35195     15798860   -1.0588893 0.0055547458    2624.7643    5869.4638 
  870000    292.62044     15756975   -1.2103753 0.0055695113    2672.1827    5942.2328 
  880000     291.8153     15715164   -3.9129002 0.0055843292    2580.1043    5841.1568 
  890000    290.89021     15673428    4.2384565 0.0055991997    2603.1512    5853.8659 
  900000    294.01214     15631765  -0.73953247  0.005614123    2539.9357    5825.5381 
  910000    298.37809     15590176   0.74127653 0.0056290994    2610.5457    5944.9379 
  920000    293.58121     15548661   -2.0303778 0.0056441291    2630.5077    5911.2944 
  930000    293.22972     15507220    2.4477515 0.0056592124     2563.013    5839.8718 
  940000    292.44222     15465853    1.3756491 0.0056743494    2572.1354    5840.1939 
  950000    293.69721     15424559    2.9117869 0.0056895405    2605.9996    5888.0826 
  960000    296.90801     15383338    4.5477959 0.0057047859    2491.6164    5809.5803 
  970000    287.28917     15342191    6.2515271 0.0057200858    2577.2917    5787.7645 
  980000    294.46382     15301118  -0.34024125 0.0057354404    2502.9375    5793.5875 
  990000    293.77382     15260118   -3.9996382 0.0057508501    2589.7899    5872.7291 
 1000000    295.03249     15219191    3.8291018  0.005766315    2559.3416    5856.3465 
 1010000     288.8436     15178338   0.52262672 0.0057818354    2670.3329    5898.1766 
 1020000    293.77786     15137558   0.37332599 0.0057974116    2532.7309    5815.7153 
 1030000    291.10585     15096850   -3.8349767 0.0058130437     2513.389    5766.5135 
 1040000    291.91895     15056216  -0.35979088 0.0058287321    2558.0359    5820.2468 
 1050000    294.93433     15015655  -0.46371976  0.005844477    2526.8643    5822.7722 
 1060000    291.61178     14975167   -6.6740268 0.0058602787    2565.2165    5823.9947 
 1070000    294.91126     14934752    6.2761508 0.0058761374    2585.9867    5881.6368 
 1080000    284.89813     14894409   -0.7576106 0.0058920533    2505.9936    5689.7463 
 1090000    290.37897     14854139    1.0642833 0.0059080268    2516.2275    5761.2289 
 1100000    297.58677     14813942   -2.8957516 0.0059240581     2627.445     5952.994 
 1110000     291.6795     14773817   -3.1577056 0.0059401474    2466.6377    5726.1727 
 1120000    294.14285     14733765    3.0413348 0.0059562951    2506.8964    5793.9595 
 1130000    300.77463     14693785   -6.3625643 0.0059725013    2471.9268    5833.1004 
 1140000    289.49651     14653878    3.0423293 0.0059887664    2552.8278    5787.9678 
 1150000    296.64822     14614043   -2.8640827 0.0060050906    2411.0492    5726.1099 
 1160000    296.06538     14574280   -1.8190169 0.0060214741    2490.8144    5799.3618 
 1170000    293.35317     14534590   0.60693399 0.0060379174    2444.2626     5722.501 
 1180000    292.11191     14494971   0.53347598 0.0060544205    2435.3036    5699.6708 
 1190000    298.60453     14455425    5.2419572 0.0060709839    2498.0712    5834.9938 
 1200000    291.22549     14415951    2.0226829 0.0060876077    2456.3237    5710.7851 
 1210000    297.26034     14376548    2.5863918 0.0061042922    2465.1736    5787.0748 
 1220000    286.07915     14337218     3.493014 0.0061210378    2416.9219    5613.8726 
 1230000    292.38605     14297959   0.28725578 0.0061378447    2452.3752     5719.806 
 1240000    297.33034     14258772    0.9245439 0.0061547132    2475.9896    5798.6731 
 1250000    292.99932     14219656   -3.8583169 0.0061716436    2354.2414    5628.5255 
 1260000    288.09232     14180613   0.25324976 0.0061886361    2439.8435    5659.2915 
 1270000    288.08349     14141641    4.6873283  0.006205691    2454.3559    5673.7053 
 1280000    290.83817     14102740    2.9077742 0.0062228087    2470.1527    5720.2858 
 1290000    299.33679     14063910   -3.3415756 0.0062399894    2440.9782    5786.0839 
 1300000    301.58242     14025152   0.98162728 0.0062572334    2517.5062    5887.7069 
 1310000    294.46506     13986466   -5.8570538  0.006274541    2493.2219    5783.8857 
 1320000    289.03943     13947850   -6.3463637 0.0062919125    2444.6966    5674.7287 
 1330000    291.52369     13909306    3.7704648 0.0063093481     2441.755    5699.5488 
 1340000    290.70565     13870832    -3.770037 0.0063268483    2400.5318     5649.184 
 1350000    291.56332     13832430   -4.1936201 0.0063444132    2457.6592    5715.8959 
 1360000    287.87521     13794099 -0.083666081 0.0063620432    2394.3793    5611.4011 
 1370000    300.90991     13755838   -4.1808154 0.0063797386    2415.3317     5778.017 
 1380000    285.92589     13717649    1.6734152 0.0063974996    2357.4357    5552.6738 
 1390000    293.24071     13679530    4.6021176 0.0064153267    2501.6231    5778.6047 
 1400000    292.71406     13641481    3.3335316   0.00643322     2430.013    5701.1093 
 1410000     290.8903     13603504    1.3333782   0.00645118    2342.5207    5593.2363 
 1420000    297.64112     13565597   -3.7323874 0.0064692069    2324.1903    5650.3467 
 1430000    291.85961     13527760    3.6798859  0.006487301    2347.5726    5609.1203 
 1440000    285.66203     13489994   -5.5377939 0.0065054626    2412.4961    5604.7856 
 1450000    295.29307     13452298  -0.31849971 0.0065236921    2350.6623    5650.5792 
 1460000     291.3716     13414673   -1.0746328 0.0065419898    2348.4212    5604.5154 
 1470000    285.80028     13377117  -0.14834602  0.006560356    2377.3771    5571.2116 
 1480000    294.87097     13339632  -0.78424602 0.0065787909    2350.4247    5645.6246 
 1490000    286.47054     13302217    3.1114564 0.0065972951    2372.7704     5574.095 
 1500000    292.56079     13264872   -2.1006622 0.0066158686    2410.6897    5680.0733 
 1510000    291.73711     13227597    7.4729843  0.006634512     2366.626    5626.8047 
 1520000    295.19808     13190392    5.7580526 0.0066532255    2389.9736     5688.829 
 1530000    292.90787     13153257   -3.5141351 0.0066720094    2299.0559     5572.318 
 1540000    294.12091     13116191    5.2864126 0.0066908641    2412.2171     5699.035 
 1550000    290.51168     13079195   -1.1730866 0.0067097899    2360.8774    5607.3619 
 1560000    288.03364     13042269    -3.282264 0.0067287871    2344.5167    5563.3091 
 1570000     296.1073     13005412   -5.3175109 0.0067478562    2364.0032    5673.0191 
 1580000    296.16689     12968625  -0.91888155 0.0067669973    2313.8945    5623.5763 
 1590000    297.59957     12931907    3.1850657  0.006786211    2286.5842    5612.2763 
 1600000    294.91409     12895259    6.3281395 0.0068054974    2333.8544    5629.5361 
 1610000    296.78785     12858680    1.2613916  0.006824857    2314.8326    5631.4537 
 1620000    292.71654     12822170    6.9747546   0.00684429    2316.1941    5587.3181 
 1630000    298.77888     12785730   -7.0794252  0.006863797    2432.7612    5771.6322 
 1640000    288.34123     12749358    2.3523847 0.0068833781    2348.0543     5570.284 
 1650000    294.28442     12713056   -4.4209388 0.0069030338    2351.4919    5640.1371 
 1660000    297.55897     12676822   -4.7276147 0.0069227644    2318.2424    5643.4808 
 1670000    303.20094     12640657   -4.7181342 0.0069425702    2282.7977    5671.0855 
 1680000    290.62974     12604562   -1.5858889 0.0069624517    2355.7554    5603.5593 
 1690000     298.3869     12568535   -5.2561707 0.0069824092    2246.5882    5581.0787 
 1700000    296.29388     12532576    2.1398396  0.007002443    2367.8557    5678.9566 
 1710000    297.23892     12496687    5.1625373 0.0070225535    2297.6899    5619.3517 
 1720000    292.71164     12460866   -3.6167102 0.0070427411    2374.3294    5645.3985 
 1730000    295.40028     12425113   -1.3683894 0.0070630062    2256.3819    5557.4968 
 1740000    296.27548     12389429     8.348663  0.007083349    2348.5636    5659.4589 
 1750000    295.10914     12353814    1.7600082 0.0071037701    2287.2704    5585.1319 
 1760000    298.60269     12318266   -0.8895144 0.0071242698    2336.4923    5673.3943 
 1770000    293.38053     12282787    1.5262162 0.0071448484    2164.9587    5443.5029 
 1780000    291.64875     12247376    4.7200728 0.0071655063    2296.5755    5555.7669 
 1790000    291.21722     12212033    6.1829397  0.007186244    2295.3135    5549.6825 
 1800000    296.12586     12176759    1.0525935 0.0072070617    2355.4601    5664.6834 
 1810000    294.63503     12141552   0.22897567 0.0072279599    2283.1799    5575.7431 
 1820000    288.49703     12106413    3.8619892 0.0072489391    2199.5275    5423.4982 
 1830000    287.41122     12071342  -0.45454965 0.0072699994    2224.8347    5436.6714 
 1840000     291.4001     12036339   -1.2371148 0.0072911415    2200.6217    5457.0344 
 1850000    295.05312     12001404   -4.2788839 0.0073123656    2325.4884    5622.7238 
 1860000    287.04495     11966536    1.5874127 0.0073336721    2269.3494    5477.0931 
 1870000    290.66734     11931736    1.5436428 0.0073550616    2333.8567    5582.0808 
 1880000    284.63309     11897003    2.4096735 0.0073765342    2277.8149     5458.606 
 1890000    299.79112     11862338    1.1838169 0.0073980906    2311.2122     5661.395 
 1900000    295.51388     11827740   -1.3475595  0.007419731    2241.4619    5543.8463 
 1910000     302.4241     11793210    4.3559728 0.0074414559    2263.3185     5642.925 
 1920000    293.22162     11758747    1.5130071 0.0074632657    2227.7151    5504.4834 
 1930000    295.17347     11724351    5.6206345 0.0074851608    2283.0243    5581.6046 
 1940000    293.79786     11690022   -1.9432762 0.0075071416    2195.8801    5479.0879 
 1950000    292.49503     11655760   -3.6198235 0.0075292086    2242.2943    5510.9429 
 1960000    294.20594     11621566   -1.4188222 0.0075513621     2290.147    5577.9151 
 1970000    302.09915     11587438    4.1663503 0.0075736027    2309.9168     5685.892 
 1980000    291.13943     11553377    2.7769045 0.0075959307    2192.5957    5446.0954 
 1990000    295.58738     11519383    5.2380358 0.0076183465    2205.8111    5509.0169 
 2000000     286.9846     11485456   -8.0302411 0.0076408506    2304.4273    5511.4966 
 2010000     287.8843     11451595    7.0231074 0.0076634434     2202.429    5419.5525 
 2020000    290.85096     11417801   -1.0167735 0.0076861254    2264.9534    5515.2295 
 2030000    289.90911     11384074    4.1070026  0.007708897    2230.7656    5470.5164 
 2040000    298.78072     11350413   -2.4277683 0.0077317587    2194.8099    5533.7013 
 2050000    289.52721     11316818  -0.87980433 0.0077547108    2247.6315    5483.1146 
 2060000    289.26983     11283290    10.946224 0.0077777539    2216.8904    5449.4972 
 2070000      292.996     11249828  -0.62102255 0.0078008883    2304.3976    5578.6446 
 2080000    291.49441     11216432   -1.3757403 0.0078241146    2192.9978    5450.4644 
 2090000     290.7715     11183103   0.62158476 0.0078474332     2178.916    5428.3041 
 2100000     297.6653     11149839    6.5939054 0.0078708445    2197.7848    5524.2114 
 2110000    290.51211     11116642   -1.7986733 0.0078943491    2177.6426     5424.132 
 2120000    304.01734     11083510    -3.895659 0.0079179473    2152.8333    5550.2444 
 2130000    289.66645     11050445    0.7979557 0.0079416397    2197.3852    5434.4242 
 2140000    291.72657     11017445    2.1697002 0.0079654267    2244.2989      5504.36 
 2150000    293.33323     10984511  -0.92322575 0.0079893088    2165.7169    5443.7325 
 2160000     288.0933     10951643   -4.2260201 0.0080132865    2056.6039    5276.0629 
 2170000    284.70127     10918840  -0.58784117 0.0080373602    2233.1616    5414.7144 
 2180000    294.63398     10886103   -4.0459261 0.0080615304    2172.7914    5465.3428 
 2190000     292.8765     10853432   -2.8309205 0.0080857977    2246.2847    5519.1963 
 2200000    297.59347     10820825  -0.31482641 0.0081101624    2213.3129    5538.9368 
 2210000    287.46214     10788285   0.50986195 0.0081346252    2091.9297    5304.3354 
 2220000    292.70796     10755809   -2.7098665 0.0081591864    2239.7566    5510.7847 
 2230000      296.697     10723399    9.5960856 0.0081838466    2131.3043    5446.9102 
 2240000    293.62643     10691054    7.2504966 0.0082086063    2096.3205    5377.6126 
 2250000    293.00368     10658774    3.1834704 0.0082334659    2099.8756    5374.2084 
 2260000    289.85537     10626559   -3.7572261 0.0082584261     2171.292    5410.4423 
 2270000    296.41862     10594409    1.1380244 0.0082834872    2178.0233    5490.5182 
 2280000    296.34633     10562324    3.5232796 0.0083086498    2178.7594    5490.4465 
 2290000    295.81216     10530304    8.0208522 0.0083339145    2195.0976    5500.8154 
 2300000     293.0054     10498348   -4.4555375 0.0083592817    2110.4522    5384.8043 
 2310000    282.87037     10466458    5.7616356 0.0083847519    2178.0955    5339.1879 
 2320000    287.77815     10434632   -1.5247375 0.0084103258    2161.1096    5377.0468 
 2330000    297.36563     10402870   -1.8898735 0.0084360037    2146.6808    5469.7586 
 2340000    302.64996     10371173   -6.0762695 0.0084617863    2183.5081    5565.6386 
 2350000     288.6463     10339541   -6.7271376  0.008487674      2194.85    5420.4888 
 2360000    291.84624     10307973   -7.0011442 0.0085136674    2200.2969    5461.6952 
 2370000    291.93797     10276469  -0.20707024 0.0085397671    2097.6602    5360.0837 
 2380000    295.27512     10245029   -1.8802129 0.0085659736    2215.9606    5515.6769 
 2390000    284.29265     10213654   -3.0971613 0.0085922875    2131.6079    5308.5945 
 2400000    290.17407     10182343   -0.5369142 0.0086187092    2114.2314    5356.9431 
 2410000     291.6336     10151096   -4.0168568 0.0086452393    2131.5566    5390.5788 
 2420000    293.65994     10119913    6.4647911 0.0086718785     2157.847    5439.5135 
 2430000    292.74591     10088793    12.147487 0.0086986272    2075.8125    5347.2647 
 2440000    299.17634     10057738    7.6537224  0.008725486    2159.8705    5503.1831 
 2450000     291.9696     10026746     1.977436 0.0087524556    2152.6693    5415.4462 
 2460000    295.17639    9995818.5    7.6386822 0.0087795364    2186.5355    5485.1485 
 2470000    295.34233    9964954.3     2.436222  0.008806729    2142.5468    5443.0142 
 2480000    292.65354    9934153.7    4.7197498  0.008834034     2122.036     5392.456 
 2490000    292.80226    9903416.6   -3.1195772 0.0088614521    2166.6429    5438.7248 
 2500000    286.97823      9872743    5.0241703 0.0088889837    2163.4812    5370.4793 
 2510000    293.22201    9842132.8    2.7240003 0.0089166295    2161.2465    5438.0192 
 2520000    292.16222      9811586   -8.7687695   0.00894439    2148.7467    5413.6761 
 2530000    291.21878    9781102.4    4.4834718 0.0089722659    2116.3419    5370.7284 
 2540000    295.21694      9750682    2.1345722 0.0090002578    2096.1345    5395.2006 
 2550000    291.64994    9720324.8    5.8785812 0.0090283662    2119.4241    5378.6287 
 2560000    294.18994    9690030.6  -0.72380073 0.0090565918    2151.3846    5438.9739 
 2570000    296.13145    9659799.5    4.6137603 0.0090849351    2092.9509    5402.2367 
 2580000    295.11396    9629631.3    5.0224232 0.0091133969    2158.5677     5456.483 
 2590000    295.18707    9599525.9    2.7285269 0.0091419777    2192.0452    5490.7775 
 2600000    288.56667    9569483.4    5.0910448 0.0091706781    2157.5514    5382.3003 
 2610000    295.91798    9539503.6    2.9179547 0.0091994988    2107.8727     5414.773 
 2620000    289.85773    9509586.5    -4.508108 0.0092284403    2217.3579    5456.5345 
 2630000    292.16007      9479732   -8.3385047 0.0092575034    2137.7563    5402.6616 
 2640000    290.25378    9449940.1    1.4403688 0.0092866887    2157.3125     5400.915 
 2650000    290.72951    9420210.7   -3.2061523 0.0093159967    2122.0465    5370.9654 
 2660000    293.80322    9390543.6   -1.6931754 0.0093454283    2144.1846    5427.4523 
 2670000    287.93494    9360938.9   -4.6114648 0.0093749839    2097.1907    5314.8801 
 2680000    292.02799    9331396.5   -6.1614352 0.0094046643    2157.6064    5421.0358 
 2690000    291.22854    9301916.4 -0.0043504494 0.0094344701    2176.6815     5431.177 
 2700000    292.01965    9272498.4    1.6458501  0.009464402    2049.7506    5313.0868 
 2710000    295.68478    9243142.4    1.8389448 0.0094944606    2088.2067    5392.5009 
 2720000    290.25037    9213848.5   -5.8544093 0.0095246467    2166.2906     5409.855 
 2730000    295.76402    9184616.6   -6.9155534 0.0095549608    2125.7638    5430.9436 
 2740000    293.68915    9155446.5   -4.5780015 0.0095854038    2052.0432    5334.0362 
 2750000    293.59202    9126338.3    2.6195659 0.0096159762    2104.9286    5385.8362 
 2760000    287.67825    9097291.9   0.44062193 0.0096466787    2020.5143    5235.3351 
 2770000    298.29462    9068307.1    2.3267049 0.0096775121     2005.677    5339.1364 
 2780000    291.23763      9039384    1.8607917 0.0097084771    2093.0205    5347.6176 
 2790000    290.71759    9010522.4   0.44836776 0.0097395742    2137.4465    5386.2321 
 2800000    291.49269    8981722.3    3.8058604 0.0097708044     2017.451    5274.8984 
 2810000    296.67005    8952983.7    3.0957261 0.0098021682    1997.2731    5312.5778 
 2820000    288.26885    8924306.4    2.8484195 0.0098336664    2110.5125    5331.9332 
 2830000     291.1867    8895690.4    2.5885887 0.0098652996    2128.5133    5382.5413 
 2840000    292.45006    8867135.7   -7.4948497 0.0098970687    1951.2996    5219.4456 
 2850000    292.87219    8838642.2    8.7396878 0.0099289744    2042.9021    5315.7655 
 2860000    296.54308    8810209.7    13.930473 0.0099610173    2012.9788    5326.8646 
 2870000    289.10378    8781838.3   -4.2208945 0.0099931983    2038.3976    5269.1488 
 2880000    285.79113    8753527.9    4.5866769  0.010025518    2071.9905    5265.7226 
 2890000    291.23801    8725278.3    2.7337497  0.010057977    2027.2505    5281.8518 
 2900000    295.03809    8697089.7    8.5577186  0.010090577    2039.8011    5336.8686 
 2910000    291.73892    8668961.8    8.9246662  0.010123317    2090.2064    5350.4054 
 2920000    294.91687    8640894.6    6.3181408    0.0101562    2074.7823     5370.495 
 2930000    292.16344      8612888    4.5363939  0.010189225    2084.2952    5349.2383 
 2940000    288.42121    8584942.1    11.586063  0.010222393    2068.1556     5291.279 
 2950000    293.43002    8557056.6   -4.5329051  0.010255705    2103.4067    5382.5038 
 2960000    287.60131    8529231.6   -5.1192635  0.010289163    2059.7536    5273.7146 
 2970000    292.41774      8501467   -5.0224335  0.010322766    2047.3616    5315.1465 
 2980000    302.43343    8473762.7    7.2738772  0.010356515    2033.8799    5413.5906 
 2990000    287.21958    8446118.7    1.8703023  0.010390412     2042.379    5252.0742 
 3000000    293.92551    8418534.8     1.845946  0.010424457    2018.6689    5303.3032 
 3010000    298.76834    8391011.1    9.8889465   0.01045865    2033.7436    5372.4967 
 3020000    288.89497    8363547.4   -6.9062196  0.010492994    1958.8974    5187.3151 
 3030000     287.6176    8336143.7   0.60813539  0.010527488    2044.1228    5258.2658 
 3040000     295.9035      8308800   -6.0310649  0.010562133    1963.9253    5270.6637 
 3050000    296.72162    8281516.1  -0.78379603  0.010596931    1991.4044    5307.2853 
 3060000    297.51929      8254292  -0.30542784  0.010631881    1998.5398    5323.3348 
 3070000     297.0747    8227127.6   -13.816174  0.010666986    1950.4696    5270.2962 
 3080000    291.78621    8200022.9     1.002031  0.010702245     1980.925    5241.6525 
 3090000    296.99962    8172977.8   -9.7024973  0.010737659    2011.7152    5330.7029 
 3100000    284.43739    8145992.2     2.876188   0.01077323    1976.8937    5155.4977 
 3110000    295.03633    8119066.1   -3.6505183  0.010808959    1941.4987    5238.5465 
 3120000    294.44172    8092199.4    1.3070577  0.010844845    2055.3285    5345.7315 
 3130000    298.78607      8065392   -7.1738885  0.010880891    1911.7298    5250.6811 
 3140000    286.58584    8038643.9   0.22395466  0.010917097    1967.6794    5170.2924 
 3150000     298.1883      8011955   -6.5522767  0.010953463    2061.6079    5393.8791 
 3160000    292.10079    7985325.2   -2.2002796  0.010989991    1916.7658    5181.0087 
 3170000     302.6561    7958754.5   -3.3739458  0.011026682    1988.3771    5370.5762 
 3180000    298.35972    7932242.8    2.3387123  0.011063536    1963.2955    5297.4823 
 3190000     299.3084    7905790.1    7.7633239  0.011100554    1947.4992    5292.2875 
 3200000    293.41416    7879396.2    1.4341992  0.011137738    1915.0373    5193.9572 
 3210000    291.50847    7853061.2  -0.83857518  0.011175088    1971.3424    5228.9661 
 3220000    295.30304    7826784.8    5.4456218  0.011212606     1928.523    5228.5513 
 3230000     288.7319    7800567.2    3.3468132  0.011250291    1885.5934    5112.1888 
 3240000    290.45669    7774408.2    3.6717079  0.011288146    1924.0827    5169.9527 
 3250000    290.41806    7748307.7    6.5083947   0.01132617    1870.2267     5115.665 
 3260000    301.43604    7722265.7 -0.033052796  0.011364366    2000.0632    5368.6281 
 3270000     294.1505    7696282.1   -8.0660936  0.011402733    1984.0681    5271.2167 
 3280000    291.14043    7670356.9   -2.9874976  0.011441274     1940.648    5194.1589 
 3290000    291.80214      7644490   -4.2219129  0.011479988    1889.5757    5150.4812 
 3300000    295.82532    7618681.3   -3.7875331  0.011518877    1920.8536    5226.7184 
 3310000    294.55211    7592930.7    1.4251432  0.011557942    1947.0775    5238.7141 
 3320000     289.1011    7567238.2   -3.5123209  0.011597184    1877.4609    5108.1822 
 3330000    302.27452    7541603.8  -0.62800598  0.011636603    1876.8846    5254.8196 
 3340000    291.96128    7516027.3  -0.57301109  0.011676202    1905.9105    5168.5944 
 3350000    295.74533    7490508.7    4.7653199   0.01171598    1848.8254    5153.7962 
 3360000    295.25747    7465047.9   -3.0974455   0.01175594     1929.682    5229.2011 
 3370000      288.329    7439644.9    3.6288278  0.011796081    1836.7793    5058.8722 
 3380000    298.89054    7414299.5   -1.1798158  0.011836405    1892.8964    5233.0152 
 3390000    289.65264    7389011.9   -9.9439276  0.011876913    1934.9354    5171.8201 
 3400000    288.66576    7363781.7    -3.432611  0.011917606    1873.9707     5099.827 
 3410000    290.71801    7338609.1   -5.0417585  0.011958486    1826.8572    5075.6475 
 3420000    295.27893    7313493.9    1.7356346  0.011999552    1850.7251    5150.4839 
 3430000    295.40907    7288436.1    2.8988612  0.012040807    1898.3445    5199.5577 
 3440000     293.1262    7263435.5    2.6841391  0.012082251    1934.1653    5209.8672 
 3450000      283.916    7238492.2    3.3040223  0.012123886     1879.624    5052.4014 
 3460000      295.644    7213606.1    6.3324756  0.012165712    1828.5897    5132.4282 
 3470000     295.6511    7188777.1   -5.6307616   0.01220773    1834.9495    5138.8673 
 3480000    292.41954    7164005.1    1.5042593  0.012249943    1813.9544    5081.7593 
 3490000    294.89745    7139290.1  -0.87070035   0.01229235     1914.409    5209.9048 
 3500000    297.10263      7114632     1.649205  0.012334953    1815.5328    5135.6716 
 3510000    287.36534    7090030.8  -0.24354101  0.012377753    1884.8824    5096.2064 
 3520000      290.179    7065486.3   -10.868911  0.012420752    1807.1374    5049.9042 
 3530000    292.37999    7040998.5    4.8825429   0.01246395    1860.3695    5127.7326 
 3540000    283.99331    7016567.4  -0.19731825  0.012507348    1835.0929    5008.7343 
 3550000     290.8816    6992192.9   -9.1818899  0.012550948    1840.3705     5090.989 
 3560000    291.88087    6967874.9    6.9738279  0.012594751    1829.2428    5091.0281 
 3570000    301.05575    6943613.3     1.429404  0.012638759    1824.6529     5188.968 
 3580000    287.28906    6919408.1    1.9020551  0.012682971    1856.0043    5066.4758 
 3590000    288.05906    6895259.2   -5.4898084   0.01272739    1829.2934    5048.3698 
 3600000    288.43906    6871166.6    10.285939  0.012772016    1870.3663    5093.6892 
 3610000    294.82633    6847130.2   -2.9726053  0.012816852    1897.1765    5191.8776 
 3620000    296.27552    6823149.9    10.945472  0.012861897    1863.5328    5174.4286 
 3630000     299.2817    6799225.6   -3.1156218  0.012907154    1790.2037    5134.6937 
 3640000    294.86659    6775357.3    4.1103844  0.012952623    1910.4197    5205.5706 
 3650000     298.7733      6751545    13.016276  0.012998307    1954.8549    5293.6635 
 3660000    284.72243    6727788.5   -7.1477816  0.013044205     1875.554    5057.3433 
 3670000    293.38765    6704087.8   -10.907614   0.01309032    1953.9708    5232.5944 
 3680000    287.86125    6680442.8   -15.933067  0.013136652    1900.4316    5117.2974 
 3690000    284.13863    6656853.5   -5.6081505  0.013183203    1914.7885    5090.0539 
 3700000    291.33854    6633319.8    1.3353438  0.013229974    1827.3962     5083.121 
 3710000    295.00915    6609841.6   -0.9863202  0.013276967    1830.8179    5127.5619 
 3720000    297.19549    6586418.9   -1.8424731  0.013324183    1894.8488    5216.0253 
 3730000    292.29897    6563051.6    3.6982691  0.013371623    1870.6839    5137.1416 
 3740000    288.07097    6539739.6    4.0110929  0.013419288    1717.5815     4936.791 
 3750000    290.69524    6516482.9   0.10862217   0.01346718     1852.921    5101.4569 
 3760000     300.3573    6493281.4    1.3432684  0.013515301    1820.0781     5176.588 
 3770000    297.94121    6470135.1   -8.9823582  0.013563651    1885.0788    5214.5887 
 3780000     289.7244    6447043.8    21.779363  0.013612231    1899.7335    5137.4202 
 3790000    294.66945    6424007.5    10.956703  0.013661044    1673.6195    4966.5673 
 3800000     295.1828    6401026.1   -9.6614164  0.013710091      1844.13    5142.8146 
 3810000    293.81056    6378099.6   -2.7698016  0.013759373    1798.9923    5082.3421 
 3820000    290.06547      6355228   -10.700923  0.013808891    1781.6806    5023.1787 
 3830000    294.70171      6332411   -7.2054893  0.013858647    1780.4016    5073.7099 
 3840000     294.7403    6309648.8   -16.668751  0.013908643    1805.4972    5099.2368 
 3850000    294.25499    6286941.2     7.496676  0.013958879    1758.5001    5046.8163 
 3860000    297.30607    6264288.1  -0.68466158  0.014009358    1748.1888     5070.601 
 3870000    285.89256    6241689.5   -5.7629389   0.01406008    1776.0963     4970.962 
 3880000    292.97811    6219145.3  -0.12783454  0.014111047    1804.5853    5078.6323 
 3890000    288.48962    6196655.4   -11.860694  0.014162261    1778.2432    5002.1312 
 3900000    288.46183    6174219.9    3.7885284  0.014213723    1748.4065    4971.9838 
 3910000    291.20889    6151838.5   -10.544567  0.014265435    1750.4053    5004.6812 
 3920000    290.93288    6129511.3  -0.60692415  0.014317398     1672.186    4923.3775 
 3930000    294.31036    6107238.3    7.0957099  0.014369613    1719.5658    5008.5007 
 3940000    292.10267    6085019.2    11.223991  0.014422083    1776.0674    5040.3314 
 3950000    296.56589    6062854.1    2.9128583  0.014474809    1740.7332    5054.8739 
 3960000    289.27343    6040742.8   -6.9028369  0.014527791    1627.5875    4860.2345 
 3970000     293.8362    6018685.4   -2.9948691  0.014581033    1670.7551    4954.3913 
 3980000    290.67664    5996681.8    7.9968834  0.014634535    1641.3774    4889.7054 
 3990000    294.43072    5974731.8   -11.766279    0.0146883    1617.5711    4907.8511 
 4000000    286.73033    5952835.5   -7.1888573  0.014742328    1723.1299    4927.3577 
 4010000    287.90775    5930992.8    2.9395518  0.014796621    1718.8303    4936.2157 
 4020000    296.70475    5909203.5   -4.4324593  0.014851181    1811.3049    5126.9974 
 4030000    294.60181    5887467.7   -4.9073018   0.01490601    1614.6838    4906.8758 
 4040000    295.25771    5865785.2    1.0252637  0.014961109    1681.8534    4981.3751 
 4050000     304.9204      5844156   -8.9272827   0.01501648    1687.5379    5095.0407 
 4060000    291.61602    5822580.1   -0.9267338  0.015072124    1698.7242    4957.5498 
 4070000    290.37773    5801057.4      6.32506  0.015128044    1681.3344    4926.3221 
 4080000    295.80115    5779587.7   -10.315733  0.015184241    1658.4245    4964.0191 
 4090000    293.97478    5758171.1   -4.0416972  0.015240716    1703.3463    4988.5313 
 4100000    294.91416    5736807.4    8.3710289  0.015297472     1685.337    4981.0196 
 4110000    291.56413    5715496.7    1.1042281   0.01535451    1611.7084    4869.9542 
 4120000    287.67176    5694238.8    3.4349873  0.015411832    1747.0957     4961.844 
 4130000    298.91706    5673033.7    13.349831   0.01546944    1805.6966    5146.1117 
 4140000    287.87334    5651881.3    -9.717926  0.015527335    1697.0268    4914.0278 
 4150000    290.95805    5630781.5    -2.632763  0.015585519    1695.3422     4946.815 
 4160000    286.73476    5609734.3    9.7788893  0.015643994    1636.4105    4840.6877 
 4170000    289.04619    5588739.6  -0.36678348  0.015702763    1633.8717    4863.9793 
 4180000    287.32277    5567797.4   -6.1150724  0.015761826    1628.5602    4839.4085 
 4190000     296.7864    5546907.6   -5.6445911  0.015821185    1593.5672    4910.1722 
 4200000    298.47318      5526070   -6.0093712  0.015880843    1585.5144    4920.9692 
 4210000     297.1359    5505284.8    6.3164682  0.015940801    1603.8701    4924.3807 
 4220000    290.78161    5484551.7    10.072056  0.016001062    1617.3351    4866.8361 
 4230000    296.13264    5463870.7   -9.9579626  0.016061627    1725.0822    5034.3814 
 4240000     290.0278    5443241.8    10.626343  0.016122497    1636.3664    4877.4436 
 4250000    292.15764    5422664.9   -9.9757585  0.016183676    1643.0249    4907.9032 
 4260000    294.11351    5402139.9    12.784379  0.016245165    1597.2079    4883.9431 
 4270000    285.90061    5381666.7    -1.856153  0.016306965     1584.289    4779.2446 
 4280000    290.68268    5361245.4    9.4121499   0.01636908    1652.9498    4901.3452 
 4290000    287.10511    5340875.7   -16.446403   0.01643151     1588.965    4797.3809 
 4300000     289.9982    5320557.8   -7.5273277  0.016494258    1668.0547    4908.8011 
 4310000    289.68131    5300291.4   -12.630757  0.016557326    1643.0674    4880.2725 
 4320000    296.49954    5280076.5    2.7098234  0.016620716    1727.0534    5040.4526 
 4330000    291.68313    5259913.2   0.11552606   0.01668443    1566.3076    4825.8832 
 4340000    296.97549    5239801.2  -0.55181769   0.01674847    1640.4909    4959.2089 
 4350000    293.93826    5219740.5    1.7837988  0.016812838    1569.0234    4853.8002 
 4360000    291.19772    5199731.2    1.6990433  0.016877536    1559.2297    4813.3808 
 4370000    294.46307      5179773   -7.2930006  0.016942567    1639.8407    4930.4822 
 4380000    296.44881    5159865.9   -10.328152  0.017007933    1625.2228     4938.055 
 4390000     287.0525      5140010     5.805352  0.017073635    1615.0891    4822.9171 
 4400000    289.32494      5120205   -13.173808  0.017139675    1602.2331    4835.4558 
 4410000    298.47569      5100451   -4.1216497  0.017206057    1575.4797    4910.9625 
 4420000     295.5746    5080747.8    5.6489876  0.017272783    1688.8772    4991.9402 
 4430000    295.16221    5061095.4    7.4021875  0.017339853    1571.4942    4869.9486 
 4440000    290.84694    5041493.8    5.0774136  0.017407271    1515.0048    4765.2359 
 4450000    286.84711    5021942.9     15.06627   0.01747504    1527.5904    4733.1232 
 4460000    291.72708    5002442.6   -8.5932994   0.01754316    1609.0681    4869.1347 
 4470000    298.81294    4982992.8   0.41009795  0.017611635    1551.9417    4891.1933 
 4480000    296.72672    4963593.5   -9.4100874  0.017680467    1538.7182    4854.6562 
 4490000    291.99251    4944244.6    1.4946856  0.017749658    1597.0602    4860.0931 
 4500000    293.50465    4924946.1    12.975266  0.017819211    1604.7292    4884.6604 
 4510000    296.17835    4905697.9    7.4854725  0.017889127    1648.3803    4958.1902 
 4520000     288.3315    4886499.8  -0.16793739  0.017959409    1556.8964    4779.0173 
 4530000    296.80757      4867352    7.3585102  0.018030061    1519.7074    4836.5488 
 4540000    297.37394    4848254.2   -13.408337  0.018101083    1697.7267    5020.8973 
 4550000     292.9785    4829206.4   -6.9986448  0.018172479    1557.7692    4831.8206 
 4560000    294.46727    4810208.6   -3.6468533  0.018244251    1549.0233    4839.7119 
 4570000    295.65364    4791260.7   -3.6612898  0.018316401    1598.5211    4902.4674 
 4580000    288.23345    4772362.6   0.90560443  0.018388932     1692.544    4913.5691 
 4590000    285.55429    4753514.2   -10.656925  0.018461847    1628.5105    4819.5959 
 4600000    290.52532    4734715.6   -15.099251  0.018535148    1590.9916    4837.6285 
 4610000    290.34128    4715966.6   -13.383796  0.018608837    1569.0141    4813.5944 
 4620000    291.11318    4697267.1   -9.6620501  0.018682917    1649.1087     4902.315 
 4630000    291.67347    4678617.1   -11.830348  0.018757391    1582.7732    4842.2408 
 4640000    294.16615    4660016.6   -7.5818414  0.018832262    1602.4275     4889.751 
 4650000     291.4332    4641465.4   -1.2134146  0.018907531    1632.7129    4889.4955 
 4660000    294.28869    4622963.6 -0.010218362  0.018983202    1653.9014    4942.5943 
 4670000    296.06745    4604510.9    5.6678047  0.019059278    1593.6704     4902.241 
 4680000    302.22575    4586107.4    12.077174   0.01913576    1567.3504    4944.7404 
 4690000    293.18697    4567753.1   -7.9194118  0.019212652    1576.4156    4852.7966 
 4700000    296.92408    4549447.8    22.199505  0.019289957    1564.6283    4882.7719 
 4710000    297.09469    4531191.4  -0.82855768  0.019367677    1502.8455    4822.8956 
 4720000    293.48546    4512983.9     7.753675  0.019445815    1580.0586    4859.7752 
 4730000    287.25168    4494825.3    3.5000563  0.019524374    1526.0158    4736.0697 
 4740000    288.51214    4476715.5   -2.2124237  0.019603357    1537.8301    4761.9696 
 4750000    297.19681    4458654.4   -13.392834  0.019682766    1598.4747    4919.6659 
 4760000    286.66361    4440641.9    5.3967202  0.019762605    1562.4719    4765.9541 
 4770000    298.18659      4422678   -2.3253568  0.019842876    1496.6898    4828.9419 
 4780000    297.23328    4404762.6    12.823348  0.019923583    1532.4605    4854.0593 
 4790000    291.22481    4386895.6    3.4988446  0.020004727    1603.0638    4857.5176 
 4800000    296.53264    4369077.1   -12.129709  0.020086314     1517.995    4831.7641 
 4810000    291.88648    4351306.8     4.440949  0.020168344    1529.8207    4791.6687 
 4820000    288.28352    4333584.8   0.22209894  0.020250821    1521.4436    4743.0283 
 4830000    290.35724      4315911    1.4359352  0.020333749    1571.0493     4815.808 
 4840000    286.69311    4298285.3   0.40677557   0.02041713    1432.8669    4636.6787 
 4850000    286.52633    4280707.7   -6.6448888  0.020500968    1588.4107    4790.3588 
 4860000    298.98173      4263178    -9.891307  0.020585266    1591.4486    4932.5864 
 4870000    293.95079    4245696.3     14.37952  0.020670026    1491.3143    4776.2311 
 4880000    293.95138    4228262.4  -0.30534875  0.020755252    1516.7592    4801.6826 
 4890000    292.79612    4210876.3   -6.7033033  0.020840948    1517.7308    4789.7442 
 4900000    292.66674    4193537.9   -7.2660186  0.020927115    1504.1527    4774.7202 
 4910000    287.67678    4176247.2   -5.2742536  0.021013759    1526.4338    4741.2382 
 4920000    296.16489    4159004.1   -2.3090755  0.021100881    1591.0392    4900.6987 
 4930000    297.24136    4141808.5   -5.0033079  0.021188486    1510.7472    4832.4363 
 4940000    293.80864    4124660.4    2.7702585  0.021276576    1545.3726    4828.7008 
 4950000    289.22143    4107559.7   -1.4331742  0.021365156     1485.193    4717.2589 
 4960000    287.79887    4090506.3     9.986675  0.021454227    1501.9996    4718.1683 
 4970000    294.22231    4073500.2   -10.602145  0.021543795    1496.2867    4784.2378 
 4980000    292.53407    4056541.2   -15.624398  0.021633862     1456.166    4725.2509 
 4990000    294.39157    4039629.4   -8.1496194  0.021724431    1474.3636    4764.2062 
 5000000    297.61021    4022764.7    12.156004  0.021815507    1546.2123    4872.0233 
 5010000    296.82712      4005947    7.0599666  0.021907093    1497.0583    4814.1182 
 5020000    295.23464    3989176.2   -15.211094  0.021999191    1497.0465    4796.3105 
 5030000    294.06663    3972452.3    8.5882492  0.022091807    1507.6732    4793.8845 
 5040000    291.36837    3955775.2   -7.8114204  0.022184944    1481.5827    4737.6409 
 5050000    286.35007    3939144.9   -12.835458  0.022278605    1529.0252    4729.0035 
 5060000     295.8154    3922561.2    5.2835729  0.022372794    1446.5681     4752.322 
 5070000    292.49082    3906024.1     27.52907  0.022467514    1492.1337    4760.7352 
 5080000    290.25882    3889533.6     0.940424   0.02256277    1531.5822     4775.241 
 5090000    288.20748    3873089.5   -7.6552441  0.022658565    1484.7144    4705.4494 
 5100000    290.60876    3856691.9    12.877418  0.022754904    1503.1347    4750.7041 
 5110000    294.30255    3840340.6    3.8375913  0.022851789    1511.2178    4800.0655 
 5120000    296.81192    3824035.6   -1.2086897  0.022949225     1502.697    4819.5871 
 5130000     291.8548    3807776.8    13.512032  0.023047215    1615.2315    4876.7255 
 5140000      292.411    3791564.2    14.305907  0.023145765    1451.1867    4718.8962 
 5150000    290.91511    3775397.6   -5.4591391  0.023244877    1465.8644    4716.8574 
 5160000    296.24055    3759277.1   -20.875044  0.023344555    1459.9974    4770.5023 
 5170000     289.3609    3743202.5   -7.5011609  0.023444805    1476.3519    4709.9764 
 5180000    291.16158    3727173.8   -8.8769061  0.023545629    1378.2492    4631.9964 
 5190000    292.71129    3711190.9   -1.7363181  0.023647032    1529.2095    4800.2748 
 5200000    299.89593    3695253.8    4.5980583  0.023749019    1439.3373    4790.6914 
 5210000    292.15352    3679362.4    7.0001371  0.023851592    1437.9926    4702.8248 
 5220000    287.38816    3663516.6    3.1272944  0.023954758    1459.8209    4671.3999 
 5230000    291.80413    3647716.4    8.0038852  0.024058519    1453.9775    4714.9052 
 5240000    289.39583    3631961.6    2.6944958   0.02416288    1450.2144    4684.2292 
 5250000    293.72335    3616252.3   -15.462963  0.024267845    1477.7023    4760.0774 
 5260000    295.15397    3600588.4    28.709848   0.02437342    1438.0596     4736.422 
 5270000    293.24605    3584969.7    12.270305  0.024479608    1478.1503    4755.1916 
 5280000    292.35508    3569396.3   -33.665985  0.024586413    1513.7773     4780.862 
 5290000     295.5172      3553868    15.967723  0.024693841     1512.003    4814.4245 
 5300000    299.64725    3538384.9    8.7974968  0.024801895    1392.7923    4741.3674 
 5310000    293.08525    3522946.8   -10.196176  0.024910581    1543.3167     4818.561 
 5320000    288.77796    3507553.6    8.4965239  0.025019903    1422.5504    4649.6605 
 5330000    293.93712    3492205.4   -10.968638  0.025129865    1474.7539    4759.5179 
 5340000    306.20019      3476902   -6.6820739  0.025240473    1398.2475     4820.052 
 5350000    293.72305    3461643.4       1.0207  0.025351731    1386.4874    4668.8591 
 5360000     296.4379    3446429.5  -0.75776754  0.025463644    1381.5405    4694.2509 
 5370000      291.317    3431260.2   -21.510085  0.025576216    1477.7772    4733.2612 
 5380000    294.59902    3416135.5  -0.53286361  0.025689453    1373.0182     4665.179 
 5390000    297.29481    3401055.3    3.0824906  0.025803359    1323.4281    4645.7145 
 5400000    294.15511    3386019.6   -6.4293407   0.02591794     1398.212    4685.4121 
 5410000    291.72589    3371028.2   -1.8071464    0.0260332    1484.1434    4744.1968 
 5420000    301.23882    3356081.1   -10.688827  0.026149145    1390.4563    4756.8173 
 5430000    289.51943    3341178.3    -11.24062  0.026265779    1424.6738    4660.0699 
 5440000    294.41517    3326319.7    4.9466917  0.026383108    1459.9558    4750.0621 
 5450000    290.50493    3311505.2   -9.5074625  0.026501136    1416.6486    4663.0577 
 5460000    287.71322    3296734.8    23.552902   0.02661987    1378.5587    4593.7703 
 5470000    293.82611    3282008.3     42.67981  0.026739314    1337.2128    4620.7363 
 5480000     295.1831    3267325.8    2.3968805  0.026859474     1412.169     4710.857 
 5490000    289.92816    3252687.1    7.9155916  0.026980355    1456.7056    4696.6693 
 5500000    297.52845    3238092.2   -10.416861  0.027101962    1446.0816     4770.979 
 5510000    288.07443      3223541    13.866898  0.027224301    1406.8573    4626.1054 
 5520000      296.681    3209033.5    11.111687  0.027347378    1359.7736    4675.2007 
 5530000    290.26217    3194569.6    2.4211934  0.027471197    1402.1163    4645.8125 
 5540000    295.68806    3180149.2    13.060933  0.027595766    1252.3715    4556.7024 
 5550000    292.66544    3165772.3    20.690569  0.027721088    1412.7071    4683.2601 
 5560000    294.26682    3151438.7    21.996646   0.02784717    1339.0396     4627.488 
 5570000    293.37503    3137148.5    10.356298  0.027974019    1377.0196    4655.5022 
 5580000    294.19959    3122901.6   -9.3949733  0.028101639    1313.8864    4601.5836 
 5590000    292.12797    3108697.8   -12.167879  0.028230036     1403.216    4667.7627 
 5600000    294.50631    3094537.2    23.785354  0.028359217    1351.2656    4642.3904 
 5610000    294.53302    3080419.7    3.6944632  0.028489187    1362.5957    4654.0189 
 5620000    285.90157    3066345.2    16.613449  0.028619952    1383.8245    4578.7908 
 5630000    284.18271    3052313.6   -7.0976752  0.028751519    1373.2162    4548.9741 
 5640000    294.89751    3038324.8    2.6921186  0.028883894    1404.1468    4699.6433 
 5650000     292.2734    3024378.9    5.1943088  0.029017082    1375.0684    4641.2403 
 5660000    292.95582    3010475.7    15.525021  0.029151091     1299.514    4573.3119 
 5670000    292.60116    2996615.2    24.376064  0.029285926    1327.8635    4597.6981 
 5680000    296.08441    2982797.3   -19.523969  0.029421594    1343.1246    4651.8847 
 5690000    289.94707    2969021.9   -5.1614659  0.029558101    1391.3161    4631.4912 
 5700000    291.12353    2955289.1    18.480886  0.029695454     1393.831     4647.153 
 5710000    293.32368    2941598.6   -11.664854   0.02983366    1343.5566    4621.4655 
 5720000    294.05368    2927950.5    4.0108962  0.029972724     1322.064    4608.1306 
 5730000    290.68645    2914344.6   -6.6548984  0.030112654    1371.7746    4620.2122 
 5740000    288.71714      2900781   -25.481096  0.030253456    1341.7797    4568.2102 
 5750000    289.60818    2887259.5   -14.228384  0.030395138    1350.4274    4586.8153 
 5760000    289.95809    2873780.1    3.8710568  0.030537706     1370.815    4611.1131 
 5770000    298.25542    2860342.8   -2.1979784  0.030681166    1297.1126    4630.1339 
 5780000    290.23534    2846947.3    28.924622  0.030825527    1338.4527    4581.8491 
 5790000    297.76578    2833593.8   0.55990912  0.030970795    1281.5726    4609.1222 
 5800000    293.80966    2820282.1   -18.875047  0.031116976     1325.548    4608.8877 
 5810000    287.16765    2807012.1    -4.646611   0.03126408    1270.7599    4479.8747 
 5820000    297.56511    2793783.9   -10.162631  0.031412112    1378.4686    4703.7756 
 5830000    300.26921    2780597.2   -27.633389   0.03156108    1270.9208    4626.4463 
 5840000    294.98323    2767452.2     26.85338  0.031710991    1322.5206    4618.9749 
 5850000    288.99703    2754348.6    11.736589  0.031861854    1367.8255    4597.3837 
 5860000    291.55424    2741286.4    23.541783  0.032013675    1320.7179    4578.8531 
 5870000    291.46754    2728265.6   -2.7605719  0.032166462    1300.3584    4557.5247 
 5880000    288.66141    2715286.1    -9.582566  0.032320223    1308.6765    4534.4842 
 5890000    291.90898    2702347.8    10.784223  0.032474965    1305.8661    4567.9656 
 5900000    292.71843    2689450.7    10.428351  0.032630697    1326.1223    4597.2674 
 5910000    288.64978    2676594.7   -14.849932  0.032787426     1364.647    4590.3248 
 5920000    296.50878    2663779.8   -30.330121   0.03294516    1387.4386     4700.941 
 5930000    299.54744    2651005.8     16.64812  0.033103908    1454.1736    4801.6333 
 5940000    291.06115    2638272.7   -10.146241  0.033263678     1302.574     4555.199 
 5950000    285.29006    2625580.4    17.477514  0.033424477    1375.7375    4563.8701 
 5960000    296.09043    2612928.9   -5.6049956  0.033586314    1297.0417    4605.8691 
 5970000    290.04499    2600318.2    51.549575  0.033749198    1362.8544    4604.1237 
 5980000    291.91504      2587748   -5.3195926  0.033913136    1360.7528      4622.92 
 5990000    304.61129    2575218.5   -15.008405  0.034078139    1294.6731    4698.7216 
 6000000    292.28022    2562729.4    6.1750787  0.034244213    1318.6938    4584.9419 
 6010000    295.91929    2550280.8   -4.2179175  0.034411368     1355.184    4662.0989 
 6020000    291.69523    2537872.6    28.423261  0.034579613    1318.1452    4577.8559 
 6030000    288.04745    2525504.7    7.3977491  0.034748957     1269.388    4488.3347 
 6040000    296.92607      2513177    5.0790213  0.034919408    1269.8625    4588.0283 
 6050000    300.21471    2500889.5   -7.7750994  0.035090975     1355.532    4710.4485 
 6060000    295.33599    2488642.1  -0.83161619  0.035263669    1366.7529    4667.1494 
 6070000    301.30628    2476434.8    6.6808259  0.035437497    1402.4854    4769.6002 
 6080000    294.86466    2464267.5    13.311628   0.03561247     1353.888    4649.0173 
 6090000     288.4897    2452140.1   -29.310658  0.035788597    1290.5194    4514.4083 
 6100000    293.47544    2440052.5    11.632199  0.035965887    1390.7848    4670.3895 
 6110000    293.57623    2428004.7   -2.6306902   0.03614435    1400.5176    4681.2487 
 6120000    293.35594    2415996.7   -19.143374  0.036323995    1381.0097     4659.279 
 6130000    295.52988    2404028.3   -7.2323634  0.036504833    1443.7639    4746.3272 
 6140000    293.17565    2392099.5   -18.128962  0.036686874    1230.5728    4506.8273 
 6150000    291.10458    2380210.2     3.463508  0.036870127    1311.4239    4564.5341 
 6160000    293.34937    2368360.4   -32.137351  0.037054602    1373.0582    4651.2541 
 6170000     300.5007      2356550   -40.564601   0.03724031    1309.7414    4667.8539 
 6180000     297.8036    2344778.9   -23.728925  0.037427261    1357.7431    4685.7153 
 6190000    289.26561      2333047    32.003838  0.037615466    1296.8545    4529.4142 
 6200000    299.01419    2321354.4   -2.5225622  0.037804935    1395.2831    4736.7838 
 6210000    289.04826    2309700.9    9.3542175  0.037995678    1189.5536    4419.6843 
 6220000    290.68452    2298086.5   0.43672267  0.038187706    1211.1552    4459.5712 
 6230000     290.5813      2286511   -23.919165  0.038381031    1219.6102    4466.8728 
 6240000    289.62714    2274974.6   -7.4382947  0.038575663    1289.6797    4526.2795 
 6250000    289.17057    2263476.9   -10.277658  0.038771613    1192.8641    4424.3617 
 6260000    292.58981    2252018.1    12.145245  0.038968893    1287.6818    4557.3895 
 6270000    295.03349      2240598   -13.029008  0.039167513    1256.8683    4553.8843 
 6280000    292.30211    2229216.6     -4.81571  0.039367485    1237.6501    4504.1428 
 6290000    297.13964    2217873.8    23.046624  0.039568821     1257.672    4578.2244 
 6300000    292.92028    2206569.6    -7.879301  0.039771532    1248.4325    4521.8333 
 6310000    289.63398    2195303.8   -30.148116   0.03997563    1109.4513    4346.1275 
 6320000    292.34717    2184076.4    37.380247  0.040181127    1185.4003    4452.3965 
 6330000     293.7102    2172887.4   -12.226522  0.040388035    1267.5446    4549.7728 
 6340000     291.8509    2161736.6   -12.826209  0.040596366    1123.0087    4384.4592 
 6350000    285.22538    2150624.1    3.8068247  0.040806132    1140.5985    4328.0083 
 6360000    292.46432    2139549.7   -18.389364  0.041017346    1123.3479    4391.6533 
 6370000    287.65821    2128513.4   -36.184734   0.04123002     1170.164    4384.7609 
 6380000    292.88386    2117515.1   -36.252929  0.041444167    1207.6876    4480.6815 
 6390000     291.6279    2106554.8    3.4628603    0.0416598    1194.8243    4453.7827 
 6400000    289.51989    2095632.4    -51.39908  0.041876931    1167.4959    4402.8971 
 6410000    300.31487    2084747.7      25.7364  0.042095574    1183.1791    4539.2148 
 6420000    297.26608    2073900.9    4.5945446  0.042315741    1151.4111    4473.3765 
 6430000    293.59455    2063091.7   -34.373689  0.042537446    1166.5276    4447.4634 
 6440000      292.924    2052320.1   -29.022201  0.042760703    1076.9231    4350.3654 
 6450000    293.49536    2041586.1   -19.940853  0.042985525    1235.3257    4515.1531 
 6460000    293.25098    2030889.6    -5.859011  0.043211926    1233.1697    4510.2661 
 6470000    288.71304    2020230.5   -30.418582  0.043439919    1188.2659    4414.6506 
 6480000    289.94059    2009608.8   -38.548342   0.04366952    1084.1598    4324.2624 
 6490000    295.73906    1999024.4  -0.51621369  0.043900741     1227.513    4532.4138 
 6500000    299.54832    1988477.2   -59.404236  0.044133597    1175.1078    4522.5773 
 6510000    296.20609    1977967.2  -0.39604979  0.044368103     1045.458    4355.5778 
 6520000    289.89568    1967494.3    38.879126  0.044604274     1117.871    4357.4717 
 6530000    297.93278    1957058.4     -8.51111  0.044842123    1143.2479    4472.6636 
 6540000    289.35999    1946659.4    14.417817  0.045081667    1179.5424    4413.1568 
 6550000    290.63788    1936297.4   -18.502376   0.04532292     1131.683    4379.5779 
 6560000    283.69138    1925972.2   -70.087411  0.045565897    1122.2803    4292.5476 
 6570000    297.90108    1915683.8    -30.92022  0.045810614    1020.2342    4349.2958 
 6580000    294.03352    1905432.1   -13.140575  0.046057087    1211.6934    4497.5347 
 6590000    292.13479      1895217    52.612294  0.046305331    1134.0513    4398.6742 
 6600000    292.07588    1885038.5   -13.740493  0.046555363    1171.7234     4435.688 
 6610000    292.64961    1874896.5    1.6283404  0.046807197    1005.5091    4275.8852 
 6620000    290.49473      1864791    19.031593  0.047060852    1012.5259     4258.821 
 6630000     297.2993    1854721.8    8.3176522  0.047316342    1121.6474    4443.9839 
 6640000    293.66002      1844689  -0.50689478  0.047573685    1033.1953    4314.8627 
 6650000    295.20329    1834692.3    26.859109  0.047832898    980.31978    4279.2334 
 6660000    292.06456    1824731.9    36.586529  0.048093997    1160.8986    4424.7367 
 6670000    284.08699    1814807.6   -13.409139     0.048357    981.80082    4156.4891 
 6680000    289.74955    1804919.3   -7.5365474  0.048621925    1089.1373     4327.105 
 6690000    290.29659    1795067.1   -25.642945  0.048888788    1084.3479    4328.4288 
 6700000    295.51418    1785250.7    8.3304994  0.049157607    1039.5968    4341.9845 
 6710000    293.32071    1775470.2   -20.376414  0.049428401    1000.2162    4278.0919 
 6720000    289.65504    1765725.5   -7.5961617  0.049701187    1086.9386    4323.8502 
 6730000    296.87302    1756016.5   -11.868135  0.049975985    1049.8071    4367.3801 
 6740000    300.27891    1746343.1    54.168982  0.050252812      1084.29    4439.9239 
 6750000    291.42422    1736705.4    14.268071  0.050531687    1049.4763    4306.1585 
 6760000    288.66211    1727103.1    37.391508   0.05081263    1019.1312    4244.9467 
 6770000      289.259    1717536.3   -21.092776  0.051095659    1075.6325    4308.1183 
 6780000    297.22106      1708005   -56.531923  0.051380794    1085.7343    4407.1966 
 6790000    290.72887    1698508.9   -10.160737  0.051668055     1051.464    4300.3756 
 6800000    294.85725    1689048.1    42.747621  0.051957461    1035.7999    4330.8464 
 6810000    288.08044    1679622.5   -11.792149  0.052249032    996.96079    4216.2761 
 6820000    291.12773    1670232.1    26.715919  0.052542789    982.19001    4235.5589 
 6830000    294.43398    1660876.7   -11.730587  0.052838752    1013.2209    4303.5373 
 6840000    291.64179    1651556.3   -20.046421  0.053136942    1056.5828    4315.6964 
 6850000    294.42835    1642270.8   -23.834194  0.053437381    1036.8889    4327.1425 
 6860000    288.91994    1633020.2   -1.6928579  0.053740088    1017.1968    4245.8936 
 6870000    289.58414    1623804.5   0.91806546  0.054045086     1067.193    4303.3123 
 6880000    289.44202    1614623.4    22.151702  0.054352397    1026.0824    4260.6134 
 6890000    295.73662      1605477   -13.195988  0.054662041    931.05714    4235.9307 
 6900000    294.79287    1596365.3   -3.7680054  0.054974043    977.87286       4272.2 
 6910000    288.10849      1587288   -11.096124  0.055288423    930.17579    4149.8045 
 6920000    298.56447    1578245.3   -13.011157  0.055605205    929.75213    4266.2271 
 6930000    283.70004    1569236.9    25.554838  0.055924412    994.30447    4164.6686 
 6940000    295.45652    1560262.9    40.701305  0.056246066    861.01474    4162.7581 
 6950000    293.27305    1551323.2   -40.073286  0.056570192    908.74345    4186.0865 
 6960000    290.02402    1542417.7   -30.086584  0.056896813    999.53421    4240.5692 
 6970000    289.73478    1533546.3    7.7435013  0.057225954     967.2642    4205.0669 
 6980000    298.46444      1524709   -27.093765  0.057557638    1014.4541    4349.8112 
 6990000     293.9576    1515905.8    1.2132916  0.057891891    965.66134    4250.6543 
 7000000    290.61029    1507136.5    -47.99934  0.058228736    882.66606    4130.2526 
 7010000    286.65539      1498401    -3.278568    0.0585682    948.63908    4152.0293 
 7020000    291.12828    1489699.4     8.688421  0.058910308    1037.4861    4290.8612 
 7030000    293.10329    1481031.6   -20.614676  0.059255085    975.68696     4251.133 
 7040000    295.44855    1472397.4   -2.2754383  0.059602558    987.79284    4289.4472 
 7050000    289.65756    1463796.9      42.2072  0.059952753    1010.9385    4247.8783 
 7060000    293.62773    1455229.9   -91.058032  0.060305697    999.28004    4280.5866 
 7070000    290.78754    1446696.4   -5.2102587  0.060661417    948.74438    4198.3117 
 7080000    288.97724    1438196.3   -19.807301   0.06101994    933.78994     4163.127 
 7090000    291.96799    1429729.6   -42.305671  0.061381294    967.78309     4230.542 
 7100000    292.48131    1421296.2   -27.906629  0.061745506     989.0694    4257.5647 
 7110000    286.66871      1412896   -13.554777  0.062112606    863.96727    4067.5064 
 7120000    293.51737      1404529   -25.897376  0.062482622    861.26222    4141.3355 
 7130000    290.93308      1396195    10.202232  0.062855582    1023.0865    4274.2802 
 7140000    295.11627    1387894.1   -15.420622  0.063231517    1000.0223    4297.9634 
 7150000    288.50745    1379626.2    13.866962  0.063610455    934.90375    4158.9909 
 7160000    292.70816    1371391.2    35.703853  0.063992428    908.76885    4179.7992 
 7170000    293.36071      1363189   -36.476366  0.064377465    892.87818    4171.2008 
 7180000    291.75406    1355019.6   -20.977907  0.064765597    877.12852    4137.4967 
 7190000     288.1321    1346882.9   -16.832811  0.065156856    966.02456    4185.9172 
 7200000    287.62695    1338778.8    44.257635  0.065551272    977.63508    4191.8826 
 7210000    297.66797    1330707.3    42.119093  0.065948878    867.76797    4194.2245 
 7220000    298.43853    1322668.3    52.678796  0.066349706    911.30679    4246.3743 
 7230000     294.8368    1314661.7    33.596071   0.06675379    842.97993    4137.7979 
 7240000    291.47473    1306687.5    9.1510027  0.067161161    964.97153    4222.2182 
 7250000    294.51948    1298745.7    17.029889  0.067571853    962.32971    4253.6016 
 7260000    292.04996      1290836    3.1011093  0.067985901    940.09057    4203.7655 
 7270000    286.44859    1282958.6    4.4607388  0.068403339    856.59155    4057.6708 
 7280000    291.65688    1275113.3   -2.0481263  0.068824201    895.04781      4154.33 
 7290000    293.95757      1267300   -54.483221  0.069248522    915.33724    4200.3298 
 7300000    293.16199    1259518.7     9.474571  0.069676339    969.62628    4245.7282 
 7310000    294.75958    1251769.3   -4.6953695  0.070107688    985.05554    4279.0106 
 7320000    297.85807    1244051.8    38.657665  0.070542604    912.56878    4241.1497 
 7330000    289.18393      1236366   -30.055586  0.070981125    894.71002    4126.3569 
 7340000     292.9752      1228712   -15.301508  0.071423288    840.55832    4114.5728 
 7350000    293.85959    1221089.6    35.594269  0.071869131    897.77705    4181.6747 
 7360000    286.55194    1213498.9   -40.432971  0.072318693    808.68613    4010.9203 
 7370000    299.96442    1205939.6    30.322907  0.072772013    830.39711    4182.5165 
 7380000     299.7498    1198411.8    -18.74505  0.073229128    875.64867    4225.3697 
 7390000    291.38812    1190915.4    76.319541  0.073690081     770.6982     4026.977 
 7400000     296.9457    1183450.3   -113.83354   0.07415491    952.46188     4270.847 
 7410000    296.97936    1176016.5    38.723983  0.074623657    789.28183    4108.0431 
 7420000    286.56177    1168613.9    27.841359  0.075096363    831.02795    4033.3721 
 7430000    294.77048    1161242.4   -36.254654   0.07557307    823.30148    4117.3783 
 7440000     289.9823      1153902    14.868728   0.07605382    801.42421    4041.9929 
 7450000    292.38766    1146592.5   -9.7495159  0.076538657    825.30804    4092.7567 
 7460000    288.37927      1139314   -8.6848677  0.077027623    892.56969    4115.2244 
 7470000    294.01511    1132066.4   -23.860968  0.077520764    805.01373    4090.6492 
 7480000    299.36463    1124849.6   -9.3573297  0.078018123    818.64659    4164.0633 
 7490000    289.41469    1117663.5   -24.681311  0.078519745    830.28391    4064.5096 
 7500000    288.29407    1110508.1   -3.7711589  0.079025677    845.51924    4067.2219 
 7510000    296.96465    1103383.2    24.082847  0.079535965    709.44277    4028.0396 
 7520000    289.81897      1096289    -4.581078  0.080050656    761.54605    4000.2895 
 7530000    299.46075    1089225.2   -20.972081  0.080569798    748.92441    4095.4153 
 7540000    294.48152    1082191.8     -23.5294  0.081093438    814.38815    4105.2359 
 7550000     295.5206    1075188.7    63.085565  0.081621625     699.6753    4002.1348 
 7560000    292.75818      1068216    27.416663   0.08215441    759.60763    4031.1969 
 7570000    297.08923    1061273.4   -43.199418  0.082691841    855.78894    4175.7779 
 7580000    298.97342      1054361   -68.732717  0.083233971     812.7594    4153.8044 
 7590000    287.50651    1047478.7    19.175339   0.08378085    765.37462    3978.2762 
 7600000    296.62739    1040626.3    33.008326   0.08433253    771.69195      4086.52 
 7610000    293.08637      1033804    18.882372  0.084889065    717.83136    3993.0882 
 7620000     297.9053    1027011.5    46.463456  0.085450507    811.88518    4140.9938 
 7630000    285.07643    1020248.8   -27.563505  0.086016911    694.00635    3879.7517 
 7640000    297.29818    1013515.9    25.867574  0.086588333    767.69637    4090.0205 
 7650000    298.72807    1006812.7     6.742814  0.087164826    737.22596    4075.5292 
 7660000    294.77666    1000139.1   -2.0638066  0.087746449      845.829     4139.975 
 7670000    297.88768    993495.02   -10.256218  0.088333258      768.925    4097.8367 
 7680000    295.06344    986880.46   -9.9590178  0.088925311    750.51542    4047.8662 
 7690000     290.9757    980295.32   -29.519842  0.089522667    729.58334    3981.2533 
 7700000    292.21145    973739.54   -14.260017  0.090125385    719.67919    3985.1587 
 7710000    289.99323    967213.06   -17.240014  0.090733526    725.35837    3966.0492 
 7720000    295.11296    960715.81   -24.449634  0.091347151    741.17396     4039.078 
 7730000    292.42459    954247.71    14.803019  0.091966321     678.6429    3946.5043 
 7740000    288.35349    947808.72    56.207337    0.0925911    732.48079    3954.8474 
 7750000    293.25771    941398.75   -7.6314895  0.093221551    748.42066    4025.5922 
 7760000    293.08097    935017.75    12.604428  0.093857739    795.01683    4070.2134 
 7770000    293.82034    928665.65    20.384585  0.094499728    688.21148    3971.6705 
 7780000     293.9268    922342.38    79.728183  0.095147586    697.88073    3982.5294 
 7790000    296.14117    916047.89    1.2696562   0.09580138    737.39972    4046.7941 
 7800000    290.78285    909782.09   0.60506458  0.096461177    611.27776    3860.7926 
 7810000    292.32268    903544.94   -13.869348  0.097127047    748.16295    4014.8855 
 7820000    289.15398    897336.35   -72.317492   0.09779906    716.92576    3948.2379 
 7830000    292.33924    891156.27    46.739222  0.098477287    653.82565    3920.7333 
 7840000    297.41913    885004.64     55.50814  0.099161799    706.03637    4029.7121 
 7850000     288.6264    878881.37   -20.152644   0.09985267     684.5719    3909.9884 
 7860000    295.71059    872786.42    98.835986   0.10054997    809.25272    4113.8354 
 7870000    284.19613    866719.71   -2.0962349   0.10125379    784.93209      3960.84 
 7880000    300.39845    860681.18   -21.693282   0.10196418    779.65651    4136.6262 
 7890000    294.82037    854670.76    22.109427   0.10268124    692.23874    3986.8732 
 7900000    292.04139    848688.39   -35.529347   0.10340503    742.89244    4006.4716 
 7910000    293.80968       842734    74.027497   0.10413565    615.90883    3899.2487 
 7920000    293.03089    836807.53    19.080361   0.10487316    647.72908    3922.3659 
 7930000    292.89752    830908.91    105.56411   0.10561766    776.18136    4049.3278 
 7940000    288.56144    825038.07    11.656981   0.10636922     729.6129    3954.3034 
 7950000    290.02262    819194.95   -31.233495   0.10712792    648.50145    3889.5208 
 7960000    299.18456    813379.48   -20.992571   0.10789386     603.5235     3946.928 
 7970000    296.15211    807591.61    2.3957145   0.10866712    773.04705    4082.5637 
 7980000    298.99514    801831.25    73.587793   0.10944778    663.20406    4004.4917 
 7990000    291.36478    796098.35    18.390974   0.11023594    665.20675    3921.2247 
 8000000    301.55825    790392.85   -11.909528   0.11103169     648.3726    4018.3031 
 8010000    291.63923    784714.66   -31.883918   0.11183511    621.60612    3880.6911 
 8020000    283.50152    779063.74   -71.056421    0.1126463    647.11258    3815.2582 
 8030000    290.49133    773440.02    91.122596   0.11346536    575.25857    3821.5157 
 8040000    287.88069    767843.42   -3.8713779   0.11429238    645.38199    3862.4651 
 8050000    293.26455    762273.88   -47.306562   0.11512745    664.68259    3941.9306 
 8060000    288.76523    756731.35    82.863442   0.11597068    573.97461    3800.9425 
 8070000    295.39272    751215.74   -53.063477   0.11682217    537.44411    3838.4746 
 8080000    289.55417       745727   -55.524407   0.11768201    558.50839    3794.2927 
 8090000    293.98646    740265.06   -85.838713   0.11855031    553.27504    3838.5904 
 8100000     295.0686    734829.86    59.200852   0.11942717    570.11045    3867.5188 
 8110000    299.32532    729421.33   -3.0374686    0.1203127    536.68962    3881.6671 
 8120000    292.97097     724039.4    13.913737   0.12120701    561.10407    3835.0713 
 8130000    289.31634    718684.01    40.075347    0.1221102    545.37552    3778.5021 
 8140000    293.04181    713355.09   -44.951858   0.12302239    577.50867    3852.2675 
 8150000    285.62357    708052.58    -145.1669   0.12394369    492.34057    3684.2002 
 8160000    288.51286    702776.42   -40.182932   0.12487421     504.6143     3728.762 
 8170000    287.00845    697526.52    -92.16795   0.12581407    529.83005    3737.1659 
 8180000    292.52047    692302.84   -47.043515   0.12676339    471.39292    3740.3258 
 8190000    290.54554     687105.3   -99.770246   0.12772227    523.19616    3770.0591 
 8200000    295.54937    681933.85    5.1341774   0.12869086    472.24057    3775.0216 
 8210000    295.40113     676788.4   -139.05717   0.12966926    560.21505    3861.3395 
 8220000    292.89051    671668.91    58.431978   0.13065761     583.8047    3856.8729 
 8230000    299.95882     666575.3   -98.692425   0.13165602    575.40525    3927.4621 
 8240000    287.66102     661507.5    44.909522   0.13266464    504.83818    3719.4664 
 8250000     284.7478    656465.46   -80.896631   0.13368358    530.12056    3712.1934 
 8260000    293.80483     651449.1    159.87243   0.13471298    392.14005    3675.4257 
 8270000    297.85544    646458.36    81.046859   0.13575298    485.72216    3814.2737 
 8280000    297.09784    641493.18   -87.699486   0.13680372    543.08838    3863.1736 
 8290000    301.01996    636553.48   0.88214482   0.13786532    463.60572    3827.5209 
 8300000    288.41399    631639.21    -27.92334   0.13893794    565.25758    3788.3003 
 8310000    292.63962     626750.3    10.122349   0.14002172    510.24724    3780.5116 
 8320000    292.92886    621886.67    23.152885   0.14111679     517.9022    3791.3989 
 8330000    297.32037    617048.28    32.027495   0.14222331    465.31224    3787.8842 
 8340000    296.58167    612235.05    65.791719   0.14334144    573.68873    3888.0058 
 8350000       295.13    607446.91    23.994701   0.14447131    504.48621    3802.5807 
 8360000    286.65788     602683.8    51.003654   0.14561309    414.89023    3618.3083 
 8370000    295.96934    597945.66   -117.43058   0.14676694    582.65914    3890.1334 
 8380000    288.97173    593232.41   -86.730312     0.147933    451.91549     3681.191 
 8390000    292.56436       588544   -29.557459   0.14911145    439.08026    3708.5036 
 8400000    293.74359    583880.35    72.113304   0.15030246    401.96509    3684.5664 
 8410000    291.14902    579241.41    133.27425   0.15150618    487.85144    3741.4584 
 8420000    287.45364     574627.1   -40.206071   0.15272278    469.25001    3681.5608 
 8430000    292.99307    570037.37    76.593282   0.15395245    509.91742    3784.1317 
 8440000    293.87168    565472.14    34.836769   0.15519536    433.63338    3717.6661 
 8450000    292.96795    560931.35   -39.950403   0.15645168    389.28469    3663.2182 
 8460000    301.66649    556414.93   -42.447805    0.1577216    405.51268    3776.6528 
 8470000    291.74882    551922.82    4.4539491    0.1590053     415.2879    3675.5976 
 8480000    290.35325    547454.96   -117.82565   0.16030296    390.98019    3635.6943 
 8490000    296.95825    543011.27     187.7892   0.16161479    306.28581    3624.8111 
 8500000    296.16745    538591.69   -7.4905211   0.16294097    360.11754    3669.8057 
 8510000    298.68646    534196.16    96.370527    0.1642817    357.96607    3695.8043 
 8520000    291.52091    529824.61    50.556824   0.16563718    335.34326     3593.106 
 8530000    297.18451    525476.97     155.4341   0.16700761     375.2586    3696.3125 
 8540000    296.31807    521153.18    59.026336    0.1683932     387.0542    3698.4255 
 8550000    292.55902    516853.18    -21.66384   0.16979416     320.6598    3590.0235 
 8560000    296.39911    512576.89   -19.763149   0.17121071    362.81342    3675.0903 
 8570000    290.63351    508324.26    24.884459   0.17264305    303.62268    3551.4687 
 8580000    296.24132    504095.22    2.6835776   0.17409142     260.0883    3570.6019 
 8590000    294.27913    499889.69   -200.87221   0.17555603    283.82171    3572.4078 
 8600000    292.88959    495707.62    52.356059   0.17703712    265.75741    3538.8152 
 8610000    296.34172    491548.94   -120.26123   0.17853492     253.7086    3565.3442 
 8620000    290.60316    487413.59   -19.946748   0.18004966    238.57736    3486.0842 
 8630000    293.47637    483301.49   -73.145012   0.18158159    292.13305    3571.7482 
 8640000    292.09228    479212.59   -43.936572   0.18313094    260.41286    3524.5607 
 8650000    299.06927    475146.81   -8.8124383   0.18469797     230.9558    3573.0719 
 8660000    295.83915     471104.1    47.950366   0.18628293    308.25946    3614.2788 
 8670000    293.47656    467084.38   -37.482215   0.18788608    224.49753    3504.1148 
 8680000    298.23531     463087.6    -109.1878   0.18950767    216.41059    3549.2071 
 8690000    291.60817    459113.68    85.096129   0.19114798    122.88227    3381.6201 
 8700000    294.50439    455162.56    115.54954   0.19280727    146.44543    3437.5488 
 8710000    292.30441    451234.17   -57.751074   0.19448583    259.02207    3525.5404 
 8720000    293.61436    447328.45    301.32951   0.19618393    194.88293    3476.0401 
 8730000    296.88772    443445.34   -78.073599   0.19790185    152.36141    3470.0986 
 8740000    290.38209    439584.76   -61.097771   0.19963989     156.5894    3401.6257 
 8750000    292.63773    435746.65    133.30185   0.20139834    112.64213    3382.8854 
 8760000    298.90868    431930.95   -50.615689    0.2031775    186.20967    3526.5312 
 8770000    292.28156    428137.59    -129.2828   0.20497768    128.04004    3394.3031 
 8780000    287.67256    424366.51    84.371294   0.20679919    182.50741    3397.2646 
 8790000    294.66622    420617.63    55.732626   0.20864235    42.666947    3335.5787 
 8800000    288.09458     416890.9    205.96764   0.21050748    101.72181    3321.1952 
 8810000    292.03609    413186.25   -69.082501    0.2123949     128.7074    3392.2273 
 8820000    289.68108    409503.61    38.055594   0.21430495    198.30067    3435.5032 
 8830000    293.38759    405842.92   -85.410722   0.21623798    190.92356    3469.5466 
 8840000    298.27338     402204.1   -227.43123   0.21819432    231.51581    3564.7378 
 8850000    291.28611    398587.11    156.92336   0.22017434    102.46899    3357.6078 
 8860000      295.111    394991.86   -31.692169   0.22217838    189.95551    3487.8377 
 8870000    287.85861     391418.3   -114.90948   0.22420682    95.298109    3312.1345 
 8880000    292.17017    387866.36   -119.72454   0.22626002    144.93026    3409.9485 
 8890000    296.08214    384335.97    93.214596   0.22833838    161.32112    3470.0559 
 8900000    295.97687    380827.07    -182.5796   0.23044226    107.94216    3415.5005 
 8910000    301.47299    377339.59  -0.77014572   0.23257208    130.86051    3499.8383 
 8920000    287.47527    373873.47   -6.4471348   0.23472822    87.008404    3299.5609 
 8930000    289.95818    370428.64    27.065454   0.23691109    89.627605    3329.9267 
 8940000     296.1848    367005.03   -61.372523   0.23912111     156.9494    3466.8313 
 8950000    293.24111    363602.58    52.631938   0.24135871    54.065828    3331.0519 
 8960000    295.01253    360221.23    56.518039   0.24362432    123.12008    3419.9019 
 8970000    288.63554    356860.91    100.80672   0.24591837    88.058799    3313.5774 
 8980000    297.51134    353521.55    92.473191   0.24824131    114.98712    3439.6932 
 8990000    294.61428    350203.09    10.721683    0.2505936     158.4959    3450.8273 
 9000000    294.98101    346905.46    9.2743063    0.2529757    135.49615    3431.9257 
 9010000    293.55536    343628.59     191.4454    0.2553881    139.00641    3419.5043 
 9020000     291.3649    340372.43   -126.28952   0.25783126    153.11655    3409.1359 
 9030000    297.22939     337136.9   -226.40398   0.26030568      53.6471    3375.2024 
 9040000    292.52775    333921.94    110.71669   0.26281187    93.213685    3362.2279 
 9050000    295.24723    330727.49   -19.523873   0.26535034    125.02215    3424.4268 
 9060000      290.416    327553.47   -120.26544    0.2679216    94.955973    3340.3713 
 9070000    291.27107    324399.83   -6.1728394    0.2705262    143.22648    3398.1973 
 9080000    292.15598    321266.49   -228.87084   0.27316466    27.388397    3292.2481 
 9090000    291.50252     318153.4   -28.007552   0.27583754    109.12793    3366.6851 
 9100000    288.90706    315060.48    2.4001407   0.27854542    140.82877    3369.3816 
 9110000    291.79788    311987.67   -64.663741   0.28128885    125.96406     3386.822 
 9120000    289.10211    308934.91    74.700292   0.28406842     25.23764    3255.9702 
 9130000    295.26486    305902.12    10.235918   0.28688474    65.551849    3365.1535 
 9140000     295.3116    302889.25    326.15012   0.28973842    106.59219    3406.7161 
 9150000    291.44806    299896.23     30.86666   0.29263006    27.596998    3284.5456 
 9160000      287.545    296922.99   -30.059839   0.29556032    78.179522    3291.5113 
 9170000    290.97864    293969.46   -60.891964   0.29852982   -15.979902    3235.7229 
 9180000    294.28754    291035.59     174.3219   0.30153924   -78.171982     3210.508 
 9190000    292.58431     288121.3    113.11043   0.30458925   -64.243058    3205.4032 
 9200000    299.93889    285226.54   -131.96533   0.30768053  0.076746647    3351.9109 
 9210000    291.78122    282351.22   -200.36018   0.31081378    73.782441    3334.4542 
 9220000     304.3661     279495.3    162.74758   0.31398972   -47.493939    3353.8146 
 9230000    296.25684     276658.7    142.82943   0.31720908   -28.873698    3281.8133 
 9240000    294.06289    273841.36    88.234474    0.3204726   -63.573022    3222.5965 
 9250000    296.29939    271043.21   -301.50561   0.32378104   -106.53187    3204.6307 
 9260000    292.44863    268264.18   -224.57044   0.32713518   -35.645617    3232.4844 
 9270000    291.10699    265504.22   -29.163467   0.33053581   -123.61147    3129.5256 
 9280000    293.08811    262763.25   -296.25474   0.33398373   -74.854126    3200.4222 
 9290000    285.04341    260041.22   -150.06806   0.33747978   -118.81501    3066.5613 
 9300000    288.51695    257338.04   -180.92584   0.34102479    33.682302    3257.8756 
 9310000    293.08364    254653.67      132.158   0.34461963   -111.71566    3163.5107 
 9320000    291.84202    251988.02   -539.98901   0.34826517   -84.681691    3176.6695 
 9330000    291.86162    249341.05    15.852804   0.35196231   -173.67493    3087.8952 
 9340000    288.42205    246712.67    -396.3055   0.35571197   -121.62442    3101.5084 
 9350000    292.55214    244102.84   -305.26492   0.35951508   -148.07163    3121.2152 
 9360000    291.35855    241511.47    246.23975    0.3633726   -90.865734    3165.0826 
 9370000    290.92634    238938.51    17.488625   0.36728551   -172.88577    3078.2326 
 9380000     291.5785    236383.89   -300.94119    0.3712548   -146.12365    3112.2827 
 9390000    293.73937    233847.54    138.99496   0.37528149   -247.99769    3034.5565 
 9400000     291.6594     231329.4   -256.43537   0.37936662   -105.02636     3154.284 
 9410000    289.47864     228829.4   -307.37514   0.38351126   -97.418754    3137.5215 
 9420000    294.09459    226347.48   -382.43495    0.3877165   -112.38168    3174.1421 
 9430000     290.6292    223883.57    83.050066   0.39198344   -170.08573    3077.7122 
 9440000    293.75997    221437.61    148.87255   0.39631322   -154.62727    3128.1571 
 9450000    292.06811    219009.52    30.248317   0.40070701   -203.46429    3060.4135 
 9460000    290.53299    216599.25   -130.88108   0.40516599    -255.4016    2991.3211 
 9470000    295.61957    214206.74    8.7435342   0.40969137   -182.08022    3121.4853 
 9480000     288.7598     211831.9    114.89901    0.4142844   -316.68322     2910.224 
 9490000    295.63991    209474.68    320.39769   0.41894634   -268.11702    3035.6758 
 9500000    294.44133    207135.01    80.775368    0.4236785   -269.61722    3020.7814 
 9510000     295.4392    204812.83   -7.3939373   0.42848219   -248.26429    3053.2855 
 9520000    296.44546    202508.08   -38.678499   0.43335877   -308.55842    3004.2365 
 9530000    291.65615    200220.67    179.45733   0.43830964   -351.91656    2907.3575 
 9540000    296.37715    197950.56   -121.68226   0.44333621   -236.53431    3075.4972 
 9550000    293.94253    195697.67    32.485529   0.44843994   -341.01376    2943.8107 
 9560000    292.71242    193461.94    52.291981    0.4536223     -344.501    2926.5769 
 9570000    290.15755     191243.3    235.76451   0.45888483    -302.7657    2939.7614 
 9580000    300.17436     189041.7   -196.05196   0.46422908    -376.1255      2978.34 
 9590000    298.04392    186857.05    147.87701   0.46965663   -273.14469    3057.5131 
 9600000    294.76037     184689.3    445.00658   0.47516913   -415.87952    2878.0844 
 9610000    291.40946    182538.38   -418.64064   0.48076823   -371.52984    2884.9874 
 9620000    290.90079    180404.22    216.15334   0.48645564   -365.56118    2885.2717 
 9630000    289.44442    178286.77   -47.397796   0.49223313   -399.04614    2835.5118 
 9640000    297.25494    176185.94    184.54132   0.49810246   -433.64692    2888.1939 
 9650000    296.54361    174101.69   -132.91957   0.50406548   -380.36378    2933.5279 
 9660000      294.078    172033.94    179.67623   0.51012406   -471.33998    2814.9983 
 9670000     298.0471    169982.63   -38.782404   0.51628013    -426.2439    2904.4493 
 9680000    290.31814    167947.68    274.57744   0.52253565   -444.75129    2799.5704 
 9690000    297.39027    165929.05    607.70045   0.52889264   -389.24014     2934.113 
 9700000    291.08034    163926.65    371.96675   0.53535316   -406.73621    2846.1031 
 9710000    296.70736    161940.43   -356.65618   0.54191934   -429.95196    2885.7697 
 9720000    290.57563    159970.32   -379.61546   0.54859334   -350.69829    2896.5009 
 9730000    298.71123    158016.25   -360.07258   0.55537738   -498.08905     2840.026 
 9740000    299.12108    156078.16    229.78827   0.56227374   -534.53025    2808.1648 
 9750000    300.67976    154155.98    341.12562   0.56928475   -424.64276    2935.4706 
 9760000    296.35458    152249.65    123.92012   0.57641281   -475.51444    2836.2648 
 9770000    290.35056     150359.1    295.75913   0.58366038   -445.82681    2798.8572 
 9780000    285.41737    148484.27   -363.39858   0.59102995    -496.7462    2692.8092 
 9790000    289.59494    146625.09    98.096172   0.59852412   -553.83747    2682.4024 
 9800000    297.34047    144781.49    -55.38785   0.60614553   -458.69274     2864.104 
 9810000    289.84975    142953.41   -130.75333   0.61389688   -538.99809    2700.0894 
 9820000    279.93698    141140.78    143.08024   0.62178097   -573.05142    2555.2602 
 9830000    289.09437    139343.54    61.769399   0.62980064   -517.17978    2713.4663 
 9840000    288.08576    137561.62     420.6872   0.63795882   -558.17006    2661.2046 
 9850000    288.42898    135794.96    240.99734   0.64625852   -592.05672    2631.1535 
 9860000    293.22917    134043.49   -152.55778   0.65470281   -551.05111    2725.8015 
 9870000    296.32945    132307.15    119.95269   0.66329486   -498.80195    2812.6966 
 9880000     288.9193    130585.86    586.57161   0.67203792   -462.26718    2766.4224 
 9890000    291.51106    128879.57    428.08351   0.68093531   -541.66666     2715.986 
 9900000     299.2306    127188.21    28.920627   0.68999046   -617.72279    2726.1962 
 9910000     288.6968    125511.71   -127.88013   0.69920688   -607.27625    2618.9269 
 9920000    286.98377    123850.01   -322.66558   0.70858817   -569.62308    2637.4369 
 9930000    298.35533    122203.04    141.70006   0.71813804   -716.58915    2617.5486 
 9940000    290.23285    120570.74   -767.60489    0.7278603   -703.10126    2540.2674 
 9950000    288.07921    118953.03    330.56821   0.73775885    -787.8522    2431.4493 
 9960000    289.25228    117349.86    173.88162    0.7478377   -672.95926    2559.4514 
 9970000    296.04634    115761.16    182.17886   0.75810098   -636.70289    2671.6318 
 9980000    289.64479    114186.87    459.01212   0.76855292   -691.78159    2545.0154 
 9990000    293.00527    112626.91    267.84183   0.77919789   -838.36355     2435.987 
10000000    298.77173    111081.23    1546.3993   0.79004035    -753.9956    2584.7955 
10000481    290.89925    111007.24    1200.3024   0.79056693   -751.69553    2499.1202 
Loop time of 4496.2 on 64 procs for 10000000 steps with 3750 atoms

Performance: 192.162 ns/day, 0.125 hours/ns, 2224.101 timesteps/s
99.6% CPU use with 64 MPI tasks x 1 OpenMP threads

MPI task timing breakdown:
Section |  min time  |  avg time  |  max time  |%varavg| %total
---------------------------------------------------------------
Pair    | 27.566     | 414.54     | 1885.5     |1779.7 |  9.22
Bond    | 26.508     | 204.45     | 757.16     | 908.8 |  4.55
Neigh   | 726.75     | 739.14     | 750.42     |  25.7 | 16.44
Comm    | 602.14     | 1739.4     | 2516.9     | 959.5 | 38.69
Output  | 5.6626     | 6.7171     | 6.7342     |   5.1 |  0.15
Modify  | 214.49     | 327.42     | 489.55     | 343.8 |  7.28
Other   |            | 1065       |            |       | 23.68

Nlocal:    58.5938 ave 71 max 4 min
Histogram: 1 0 0 2 1 3 2 10 24 21
Nghost:    1112.53 ave 1218 max 986 min
Histogram: 3 5 7 5 6 7 10 7 10 4
Neighs:    4466.34 ave 5699 max 178 min
Histogram: 1 0 2 2 1 4 6 11 16 21

Total # of neighbors = 285846
Ave neighs/atom = 76.2256
Ave special neighs/atom = 6.26667
Neighbor list builds = 1099998
Dangerous builds = 0
undump         	gphase1
write_restart  	restart_files/sql.gphase1.*
unfix		ensemble
unfix 		thermostat
unfix		compress

#shell		sh cleanlog.sh	# a script I wrote to clean the log.lammps file into just the thermodynamics data. commented out
Total wall time: 1:14:57
