LAMMPS (7 Aug 2019)
OMP_NUM_THREADS environment is not set. Defaulting to 1 thread. (src/comm.cpp:93)
  using 1 OpenMP thread(s) per MPI task
# THIS IS A LAMMPS FILE TO GENERATE SQUALANE UNDER AMBIENT CONIDTIONS STARTING FROM LATTICE
# Phase 1: start off a lattice with chains centered at each point of the lattice; then
# deform the box slowly at ambient T monitoring that we are fluctuating on average about the ambient P, and reaching about the density you need to get to (we will get much closer to the desired density in phase 2)
# Major update times:
# 2019.09.20: adding comments on the old files for better readability
# 2019.10.10: more comments added. note that the LAMMPS 2016 version was used to execute the code. some commands may need slight change if your LAMMPS version is different.
# STAR is the selected model
# 2020.01.17: STAR molecule added and updated to work with LAMMPS 2019

units		real
dimension      	3
boundary       	p p p
atom_style       	molecular  # 	bonds, angles, dihedrals, impropers : uncharged molecules
#molecule       	STAR infiles/UA.MG.STAR.txt
#atom_style     	template STAR

variable       	bl equal 270		# 6 times larger than desired size
variable       	Nmol equal 125		# turns out to be sufficient for shear studies planned; could do 8X
variable       	eqmT equal 293		# ambient / room temperature desired
variable       	eqmP equal 0.987	# ambient pressure desired, note 0.1MPa = 0.987 atm; real units use atm
variable        pxx equal pxx
variable        pyy equal pyy
variable        pzz equal pzz
variable        pxy equal pxy
variable        pxz equal pxz
variable        pyz equal pyz
variable	a equal cella
variable 	b equal cellb
variable 	c equal cellc
variable 	rho equal density
variable 	vol equal vol
variable 	etotal equal etotal

lattice        	fcc 45
Lattice spacing in x,y,z = 45 45 45
region         	simbox prism 0 ${bl} 0 ${bl} 0 ${bl} 0 0 0 units box side in
region         	simbox prism 0 270 0 ${bl} 0 ${bl} 0 0 0 units box side in
region         	simbox prism 0 270 0 270 0 ${bl} 0 0 0 units box side in
region         	simbox prism 0 270 0 270 0 270 0 0 0 units box side in

create_box     	3 simbox bond/types 1 angle/types 1 dihedral/types 2 improper/types 1 extra/bond/per/atom 2 extra/angle/per/atom 2 extra/dihedral/per/atom 3 extra/improper/per/atom 2 extra/special/per/atom 8
Created triclinic box = (0 0 0) to (270 270 270) with tilt (0 0 0)
  4 by 4 by 4 MPI processor grid

molecule       	STAR infiles/UA.MG.STAR.txt
Read molecule STAR:
  25 atoms with max type 3
  24 bonds with max type 1
  23 angles with max type 1
  24 dihedrals with max type 2
  3 impropers with max type 1
lattice        	sc 45
Lattice spacing in x,y,z = 45 45 45
region         	genbox prism 45 225 45 225 45 225 0 0 0 units box
create_atoms   	0 region genbox mol STAR 621634197 units box
Created 3125 atoms
  create_atoms CPU = 0.00593305 secs

neighbor       	0.3 bin
neigh_modify   	every 1 delay 0 check yes

# parameters are largely obtained from Mondello & Grest (1995) JCP 103, 7156: model A; hence called MG
# also refer to Moore et al (Cummings group) (2000) JCP 113, 8833
mass           	1 14.026
mass           	2 15.034
mass           	3 13.018

pair_style     	lj/cut 10			# MG do not say if cutoffs obey BL rules
pair_modify    	shift yes			# MG do not really mention if LJ is shifted in their above cited paper, they do so in a follow-up paper.
special_bonds  	lj 0.0 0.0 0.0

bond_style     	harmonic
angle_style    	harmonic
dihedral_style 	multi/harmonic
improper_style	harmonic

pair_coeff     	1 1 0.093 3.93 10
pair_coeff     	1 2 0.145 3.93 10
pair_coeff     	1 3 0.086 3.87 10
pair_coeff     	2 2 0.227 3.93 10
pair_coeff     	2 3 0.134 3.87 10
pair_coeff     	3 3 0.080 3.81 10

bond_coeff      1 448.126 1.54
angle_coeff     1 62.14 114
dihedral_coeff 	1 2.007 -4.012 0.271 6.290 0
dihedral_coeff 	2 0.814 -1.792 0.389 3.673 0
improper_coeff	1 40 27.25

# this initial phase is just to relax the molecules (see movie)
thermo         	1
thermo_style   	custom step temp vol press density pe etotal
dump           	iphase all atom 10 outfiles/dumpiphase.atom
dump_modify    	iphase first yes
dump_modify    	iphase scale no
minimize       	1.0e-5 1.0e-6 10000 10000
Neighbor list info ...
  update every 1 steps, delay 0 steps, check yes
  max neighbors/atom: 2000, page size: 100000
  master list distance cutoff = 10.3
  ghost atom cutoff = 10.3
  binsize = 5.15, bins = 53 53 53
  1 neighbor lists, perpetual/occasional/extra = 1 0 0
  (1) pair lj/cut, perpetual
      attributes: half, newton on
      pair build: half/bin/newton/tri
      stencil: half/bin/3d/newton/tri
      bin: standard
Per MPI rank memory allocation (min/avg/max) = 10.86 | 10.93 | 11.51 Mbytes
Step Temp Volume Press Density PotEng TotEng 
       0            0     19683000    46.792187 0.0037190445    241456.09    241456.09 
       1            0     19683000    52.297462 0.0037190445    227946.28    227946.28 
       2            0     19683000    53.295586 0.0037190445    224469.62    224469.62 
       3            0     19683000    53.849662 0.0037190445    218628.84    218628.84 
       4            0     19683000     25.89389 0.0037190445    167008.24    167008.24 
       5            0     19683000   -52.060937 0.0037190445    126043.71    126043.71 
       6            0     19683000   -172.87445 0.0037190445    94176.583    94176.583 
       7            0     19683000   -333.35061 0.0037190445    72104.332    72104.332 
       8            0     19683000   -468.00179 0.0037190445    62193.561    62193.561 
       9            0     19683000   -546.55373 0.0037190445    56887.027    56887.027 
      10            0     19683000   -510.33335 0.0037190445    51180.087    51180.087 
      11            0     19683000   -491.73578 0.0037190445    45527.109    45527.109 
      12            0     19683000    -463.3622 0.0037190445     40367.22     40367.22 
      13            0     19683000   -462.94209 0.0037190445    34387.751    34387.751 
      14            0     19683000   -434.45869 0.0037190445    32278.536    32278.536 
      15            0     19683000   -362.05416 0.0037190445      28793.5      28793.5 
      16            0     19683000   -373.91362 0.0037190445    24634.729    24634.729 
      17            0     19683000   -385.65022 0.0037190445    21733.076    21733.076 
      18            0     19683000   -351.22231 0.0037190445    18930.001    18930.001 
      19            0     19683000   -295.98638 0.0037190445    17828.008    17828.008 
      20            0     19683000    -227.4482 0.0037190445    16542.142    16542.142 
      21            0     19683000   -215.14761 0.0037190445    14141.296    14141.296 
      22            0     19683000   -248.57139 0.0037190445    13169.417    13169.417 
      23            0     19683000   -268.36519 0.0037190445     12658.59     12658.59 
      24            0     19683000   -241.01411 0.0037190445    10687.678    10687.678 
      25            0     19683000   -198.98706 0.0037190445    9614.2879    9614.2879 
      26            0     19683000   -157.80048 0.0037190445    8404.2241    8404.2241 
      27            0     19683000   -177.03417 0.0037190445    6773.7366    6773.7366 
      28            0     19683000   -191.73979 0.0037190445    5935.7496    5935.7496 
      29            0     19683000   -144.12714 0.0037190445    4950.6109    4950.6109 
      30            0     19683000   -84.641621 0.0037190445    3966.8991    3966.8991 
      31            0     19683000   -102.10375 0.0037190445    3302.1448    3302.1448 
      32            0     19683000   -126.33488 0.0037190445     2596.272     2596.272 
      33            0     19683000    -80.50128 0.0037190445    2107.9086    2107.9086 
      34            0     19683000   -30.823425 0.0037190445    1684.5351    1684.5351 
      35            0     19683000   -50.305107 0.0037190445     1365.333     1365.333 
      36            0     19683000   -72.486911 0.0037190445    1095.8556    1095.8556 
      37            0     19683000   -44.262535 0.0037190445    905.22405    905.22405 
      38            0     19683000   -14.508527 0.0037190445     747.8738     747.8738 
      39            0     19683000    -26.16509 0.0037190445    618.16873    618.16873 
      40            0     19683000   -41.855208 0.0037190445    502.78626    502.78626 
      41            0     19683000   -26.199815 0.0037190445     427.7399     427.7399 
      42            0     19683000   -6.7464466 0.0037190445    362.67211    362.67211 
      43            0     19683000   -12.710948 0.0037190445    309.21402    309.21402 
      44            0     19683000   -23.747309 0.0037190445     260.3088     260.3088 
      45            0     19683000     -16.6823 0.0037190445     228.6955     228.6955 
      46            0     19683000   -4.6406236 0.0037190445    201.92061    201.92061 
      47            0     19683000   -5.2871872 0.0037190445    174.16147    174.16147 
      48            0     19683000   -11.451444 0.0037190445    150.18464    150.18464 
      49            0     19683000   -9.9617056 0.0037190445    135.42325    135.42325 
      50            0     19683000   -5.5718293 0.0037190445    124.41328    124.41328 
      51            0     19683000   -4.4827485 0.0037190445    116.12903    116.12903 
      52            0     19683000   -4.9231636 0.0037190445    110.38256    110.38256 
      53            0     19683000    -4.794497 0.0037190445    100.15112    100.15112 
      54            0     19683000   -3.2933565 0.0037190445    92.818677    92.818677 
      55            0     19683000   -1.6321292 0.0037190445    84.282073    84.282073 
      56            0     19683000   -1.3801878 0.0037190445    76.569417    76.569417 
      57            0     19683000   -1.5621368 0.0037190445    70.095416    70.095416 
      58            0     19683000  -0.19081683 0.0037190445    63.493593    63.493593 
      59            0     19683000    1.7067264 0.0037190445    54.908393    54.908393 
      60            0     19683000    1.3124522 0.0037190445    48.963872    48.963872 
      61            0     19683000   0.95199809 0.0037190445    44.412911    44.412911 
      62            0     19683000    2.4765579 0.0037190445    41.257172    41.257172 
      63            0     19683000    3.9955145 0.0037190445    37.081167    37.081167 
      64            0     19683000    1.8600862 0.0037190445    32.732114    32.732114 
      65            0     19683000  -0.65651323 0.0037190445    29.703545    29.703545 
      66            0     19683000    1.7612334 0.0037190445     20.55213     20.55213 
      67            0     19683000    3.6287268 0.0037190445    18.277642    18.277642 
      68            0     19683000    3.5089457 0.0037190445    17.686671    17.686671 
      69            0     19683000    2.9199769 0.0037190445    16.534788    16.534788 
      70            0     19683000     3.050119 0.0037190445    15.644739    15.644739 
      71            0     19683000    3.3615554 0.0037190445    15.187062    15.187062 
      72            0     19683000    2.9145344 0.0037190445    14.332781    14.332781 
      73            0     19683000     2.521795 0.0037190445     13.88839     13.88839 
      74            0     19683000    2.6892016 0.0037190445    13.136244    13.136244 
      75            0     19683000    2.7712656 0.0037190445    12.219101    12.219101 
      76            0     19683000    2.3669766 0.0037190445    11.568382    11.568382 
      77            0     19683000    1.9870494 0.0037190445    11.340758    11.340758 
      78            0     19683000   0.81450106 0.0037190445    10.855235    10.855235 
      79            0     19683000  -0.36391138 0.0037190445    8.4319602    8.4319602 
      80            0     19683000  -0.38902566 0.0037190445     6.875919     6.875919 
      81            0     19683000  -0.76233088 0.0037190445    5.9285628    5.9285628 
      82            0     19683000   -3.2465789 0.0037190445     3.188469     3.188469 
      83            0     19683000   -3.5106154 0.0037190445    2.4946052    2.4946052 
      84            0     19683000   -3.3332825 0.0037190445    2.2237908    2.2237908 
      85            0     19683000   -3.0821285 0.0037190445    1.8145198    1.8145198 
      86            0     19683000   -3.3462694 0.0037190445    1.2966851    1.2966851 
      87            0     19683000   -3.2180176 0.0037190445    1.2486447    1.2486447 
      88            0     19683000   -2.6921138 0.0037190445   0.57371567   0.57371567 
      89            0     19683000   -2.2562883 0.0037190445  0.047794727  0.047794727 
      90            0     19683000   -2.2079954 0.0037190445  -0.19543356  -0.19543356 
      91            0     19683000   -2.6614284 0.0037190445  -0.28342703  -0.28342703 
      92            0     19683000   -2.7074213 0.0037190445  -0.30417711  -0.30417711 
      93            0     19683000   -2.0330139 0.0037190445  -0.79741787  -0.79741787 
      94            0     19683000   -1.9513948 0.0037190445  -0.85830915  -0.85830915 
      95            0     19683000   -1.8574687 0.0037190445  -0.92416334  -0.92416334 
      96            0     19683000   -1.6272232 0.0037190445   -1.1045691   -1.1045691 
      97            0     19683000   -1.9815296 0.0037190445   -1.2976525   -1.2976525 
      98            0     19683000   -1.8560498 0.0037190445   -1.3620956   -1.3620956 
      99            0     19683000   -1.7883453 0.0037190445   -1.3879613   -1.3879613 
     100            0     19683000   -1.6517539 0.0037190445   -1.4361591   -1.4361591 
     101            0     19683000   -1.6085626 0.0037190445   -1.6998946   -1.6998946 
     102            0     19683000   -1.0802176 0.0037190445   -1.8195285   -1.8195285 
     103            0     19683000   -1.5235739 0.0037190445   -2.1994725   -2.1994725 
     104            0     19683000   -1.3551501 0.0037190445   -2.2899199   -2.2899199 
     105            0     19683000  -0.81754864 0.0037190445   -2.5071499   -2.5071499 
     106            0     19683000  -0.92662612 0.0037190445   -2.6140183   -2.6140183 
     107            0     19683000   -0.9098376 0.0037190445   -2.6395092   -2.6395092 
     108            0     19683000  -0.89350997 0.0037190445    -2.651268    -2.651268 
     109            0     19683000  -0.86930658 0.0037190445   -2.6697666   -2.6697666 
     110            0     19683000  -0.84170442 0.0037190445   -2.6948296   -2.6948296 
     111            0     19683000  -0.80628976 0.0037190445   -2.7325122   -2.7325122 
     112            0     19683000  -0.57120261 0.0037190445   -2.9176795   -2.9176795 
     113            0     19683000  -0.60273396 0.0037190445   -3.0458448   -3.0458448 
     114            0     19683000  -0.54679563 0.0037190445   -3.1596704   -3.1596704 
     115            0     19683000  -0.20159697 0.0037190445    -3.859929    -3.859929 
     116            0     19683000   0.43968171 0.0037190445    -4.315411    -4.315411 
     117            0     19683000   0.40857503 0.0037190445   -4.5637409   -4.5637409 
     118            0     19683000   0.31477993 0.0037190445   -4.5843095   -4.5843095 
     119            0     19683000   0.31300928 0.0037190445   -4.5963642   -4.5963642 
     120            0     19683000   0.31697963 0.0037190445   -4.5975316   -4.5975316 
     121            0     19683000   0.35796382 0.0037190445   -4.6105556   -4.6105556 
     122            0     19683000  -0.16981691 0.0037190445    -4.640221    -4.640221 
     123            0     19683000  -0.27575949 0.0037190445    -4.646551    -4.646551 
     124            0     19683000   0.12457738 0.0037190445    -4.951445    -4.951445 
     125            0     19683000   0.44173518 0.0037190445   -4.9988224   -4.9988224 
     126            0     19683000   0.18669535 0.0037190445   -5.0300804   -5.0300804 
     127            0     19683000   0.13389675 0.0037190445   -5.0310109   -5.0310109 
     128            0     19683000    0.1321776 0.0037190445    -5.034937    -5.034937 
     129            0     19683000   0.12998619 0.0037190445   -5.0397721   -5.0397721 
     130            0     19683000   0.12716125 0.0037190445   -5.0457742   -5.0457742 
     131            0     19683000   0.12350216 0.0037190445   -5.0532843   -5.0532843 
     132            0     19683000   0.11887797 0.0037190445   -5.0626979   -5.0626979 
     133            0     19683000   0.11387019 0.0037190445   -5.0739549   -5.0739549 
     134            0     19683000   0.11013232 0.0037190445   -5.0871922   -5.0871922 
     135            0     19683000   0.11044584 0.0037190445   -5.0953456   -5.0953456 
     136            0     19683000   0.13140063 0.0037190445   -5.1550993   -5.1550993 
     137            0     19683000   0.21793312 0.0037190445   -5.1694394   -5.1694394 
     138            0     19683000   0.35607653 0.0037190445   -5.2679447   -5.2679447 
     139            0     19683000   0.21611481 0.0037190445   -5.5989569   -5.5989569 
     140            0     19683000  -0.14035357 0.0037190445   -5.9264529   -5.9264529 
     141            0     19683000   -1.4184224 0.0037190445   -7.3255876   -7.3255876 
     142            0     19683000  -0.82934917 0.0037190445    -8.575532    -8.575532 
     143            0     19683000  -0.54417003 0.0037190445   -8.9747385   -8.9747385 
     144            0     19683000   -1.3745081 0.0037190445   -9.7761288   -9.7761288 
     145            0     19683000   -1.6266287 0.0037190445   -10.571378   -10.571378 
     146            0     19683000   -1.0573188 0.0037190445    -10.82218    -10.82218 
     147            0     19683000  -0.24108712 0.0037190445   -11.325251   -11.325251 
     148            0     19683000   -1.0046031 0.0037190445   -11.731327   -11.731327 
     149            0     19683000   -1.5461914 0.0037190445   -11.869757   -11.869757 
     150            0     19683000    -1.517908 0.0037190445   -12.325447   -12.325447 
     151            0     19683000   -1.0993217 0.0037190445   -12.611831   -12.611831 
     152            0     19683000  -0.86116796 0.0037190445   -12.843382   -12.843382 
     153            0     19683000  -0.75811202 0.0037190445   -13.393887   -13.393887 
     154            0     19683000  -0.37567591 0.0037190445   -13.744946   -13.744946 
     155            0     19683000   0.57426086 0.0037190445     -14.3737     -14.3737 
     156            0     19683000   0.49025952 0.0037190445   -15.332537   -15.332537 
     157            0     19683000   0.13085247 0.0037190445   -15.675307   -15.675307 
     158            0     19683000   0.28211507 0.0037190445   -16.261038   -16.261038 
     159            0     19683000   0.88158691 0.0037190445   -16.959594   -16.959594 
     160            0     19683000    1.0653165 0.0037190445    -17.14773    -17.14773 
     161            0     19683000     1.081526 0.0037190445   -17.416981   -17.416981 
     162            0     19683000    1.1061297 0.0037190445   -17.943268   -17.943268 
     163            0     19683000    1.1786135 0.0037190445   -18.047671   -18.047671 
     164            0     19683000    1.2154335 0.0037190445   -18.609074   -18.609074 
     165            0     19683000    1.0652837 0.0037190445    -18.90099    -18.90099 
     166            0     19683000   0.85254665 0.0037190445   -19.156229   -19.156229 
     167            0     19683000   0.51078875 0.0037190445   -19.814348   -19.814348 
     168            0     19683000   0.51499939 0.0037190445   -20.108902   -20.108902 
     169            0     19683000   0.42842542 0.0037190445   -20.897127   -20.897127 
     170            0     19683000   0.41030164 0.0037190445   -21.324297   -21.324297 
     171            0     19683000   0.47247885 0.0037190445   -21.540528   -21.540528 
     172            0     19683000  0.020894648 0.0037190445   -22.488682   -22.488682 
     173            0     19683000   -0.2504644 0.0037190445   -22.731083   -22.731083 
     174            0     19683000  -0.49986538 0.0037190445   -22.950841   -22.950841 
     175            0     19683000  -0.21146395 0.0037190445   -23.219957   -23.219957 
     176            0     19683000 -0.089978052 0.0037190445   -23.294396   -23.294396 
     177            0     19683000  -0.27700088 0.0037190445   -23.428305   -23.428305 
     178            0     19683000  -0.40013315 0.0037190445   -23.537188   -23.537188 
     179            0     19683000   -0.3362235 0.0037190445   -23.586398   -23.586398 
     180            0     19683000  -0.13361015 0.0037190445   -23.731337   -23.731337 
     181            0     19683000  -0.20370889 0.0037190445     -23.8574     -23.8574 
     182            0     19683000   -0.2944559 0.0037190445   -23.916315   -23.916315 
     183            0     19683000  -0.23434678 0.0037190445   -24.111782   -24.111782 
     184            0     19683000   -0.1282193 0.0037190445   -24.255516   -24.255516 
     185            0     19683000  -0.12790352 0.0037190445   -24.390989   -24.390989 
     186            0     19683000  -0.06424579 0.0037190445   -24.620625   -24.620625 
     187            0     19683000   0.11866505 0.0037190445   -24.700331   -24.700331 
     188            0     19683000   0.36684012 0.0037190445   -24.858794   -24.858794 
     189            0     19683000   0.25558043 0.0037190445   -25.064507   -25.064507 
     190            0     19683000    0.2009711 0.0037190445   -25.160547   -25.160547 
     191            0     19683000   0.34137505 0.0037190445   -25.243428   -25.243428 
     192            0     19683000   0.40569895 0.0037190445    -25.35428    -25.35428 
     193            0     19683000   0.30266267 0.0037190445   -25.451393   -25.451393 
     194            0     19683000   0.30988925 0.0037190445   -25.594878   -25.594878 
     195            0     19683000   0.45297945 0.0037190445   -25.753671   -25.753671 
     196            0     19683000   0.52901585 0.0037190445   -25.908816   -25.908816 
     197            0     19683000   0.42102629 0.0037190445   -26.093273   -26.093273 
     198            0     19683000   0.18571964 0.0037190445   -26.399947   -26.399947 
     199            0     19683000   0.19579371 0.0037190445   -26.682382   -26.682382 
     200            0     19683000   0.23708781 0.0037190445   -26.822288   -26.822288 
     201            0     19683000   0.19175271 0.0037190445    -27.01304    -27.01304 
     202            0     19683000    0.1357433 0.0037190445   -27.166109   -27.166109 
     203            0     19683000   0.13824671 0.0037190445   -27.263902   -27.263902 
     204            0     19683000   0.19601711 0.0037190445   -27.375243   -27.375243 
     205            0     19683000   0.13749104 0.0037190445   -27.494118   -27.494118 
     206            0     19683000 -0.032711838 0.0037190445   -27.561478   -27.561478 
     207            0     19683000  -0.13794377 0.0037190445   -27.691513   -27.691513 
     208            0     19683000   -0.1110254 0.0037190445   -27.802809   -27.802809 
     209            0     19683000  -0.13007542 0.0037190445   -27.859247   -27.859247 
     210            0     19683000   -0.1361116 0.0037190445   -27.979136   -27.979136 
     211            0     19683000 -0.093439949 0.0037190445    -28.06101    -28.06101 
     212            0     19683000 -0.079183573 0.0037190445   -28.122868   -28.122868 
     213            0     19683000  -0.19093465 0.0037190445   -28.253343   -28.253343 
     214            0     19683000  -0.29054917 0.0037190445   -28.329187   -28.329187 
     215            0     19683000  -0.29958005 0.0037190445   -28.409824   -28.409824 
     216            0     19683000  -0.30616348 0.0037190445   -28.670074   -28.670074 
     217            0     19683000  -0.35752521 0.0037190445   -28.763192   -28.763192 
     218            0     19683000  -0.33773332 0.0037190445   -28.881046   -28.881046 
     219            0     19683000  -0.22040746 0.0037190445   -29.147676   -29.147676 
     220            0     19683000  -0.20481874 0.0037190445   -29.289947   -29.289947 
     221            0     19683000  -0.25710233 0.0037190445   -29.404252   -29.404252 
     222            0     19683000  -0.39296666 0.0037190445   -29.539111   -29.539111 
     223            0     19683000  -0.40494365 0.0037190445   -29.605361   -29.605361 
     224            0     19683000  -0.28175402 0.0037190445   -29.707791   -29.707791 
     225            0     19683000   -0.2553294 0.0037190445   -29.808215   -29.808215 
     226            0     19683000  -0.27433592 0.0037190445   -29.837709   -29.837709 
     227            0     19683000  -0.25265432 0.0037190445   -29.933396   -29.933396 
     228            0     19683000  -0.20124986 0.0037190445   -29.995561   -29.995561 
     229            0     19683000   -0.1109298 0.0037190445   -30.030558   -30.030558 
     230            0     19683000 -0.025747346 0.0037190445   -30.110793   -30.110793 
     231            0     19683000 -0.050489286 0.0037190445   -30.140265   -30.140265 
     232            0     19683000 -0.066981063 0.0037190445   -30.186274   -30.186274 
     233            0     19683000 -0.0051335803 0.0037190445   -30.226528   -30.226528 
     234            0     19683000  0.026638632 0.0037190445   -30.235799   -30.235799 
     235            0     19683000  0.050679476 0.0037190445   -30.255829   -30.255829 
     236            0     19683000  0.098885317 0.0037190445   -30.276048   -30.276048 
     237            0     19683000   0.14055969 0.0037190445    -30.28423    -30.28423 
     238            0     19683000   0.14134698 0.0037190445   -30.308733   -30.308733 
     239            0     19683000  0.079831312 0.0037190445   -30.323627   -30.323627 
     240            0     19683000   0.06248783 0.0037190445   -30.348909   -30.348909 
     241            0     19683000   0.17971506 0.0037190445   -30.394688   -30.394688 
     242            0     19683000   0.22644638 0.0037190445   -30.409589   -30.409589 
     243            0     19683000   0.24828386 0.0037190445    -30.46826    -30.46826 
     244            0     19683000   0.19171569 0.0037190445   -30.507006   -30.507006 
     245            0     19683000   0.17027919 0.0037190445   -30.524855   -30.524855 
     246            0     19683000   0.21013873 0.0037190445   -30.586443   -30.586443 
     247            0     19683000   0.23964434 0.0037190445   -30.626432   -30.626432 
     248            0     19683000   0.16698069 0.0037190445   -30.664267   -30.664267 
     249            0     19683000 -0.0073597458 0.0037190445   -30.740548   -30.740548 
     250            0     19683000 -0.0059227637 0.0037190445   -30.771489   -30.771489 
     251            0     19683000  0.029738477 0.0037190445   -30.830065   -30.830065 
     252            0     19683000 -0.035513665 0.0037190445   -30.893263   -30.893263 
     253            0     19683000 -0.097517507 0.0037190445    -30.91394    -30.91394 
     254            0     19683000  -0.19112025 0.0037190445   -30.971695   -30.971695 
     255            0     19683000  -0.14753712 0.0037190445   -31.001049   -31.001049 
     256            0     19683000  -0.14053127 0.0037190445   -31.014818   -31.014818 
     257            0     19683000   -0.2698029 0.0037190445   -31.054564   -31.054564 
     258            0     19683000  -0.32020114 0.0037190445   -31.093663   -31.093663 
     259            0     19683000  -0.24241939 0.0037190445    -31.11464    -31.11464 
     260            0     19683000  -0.15522874 0.0037190445   -31.156212   -31.156212 
     261            0     19683000  -0.22941454 0.0037190445   -31.185198   -31.185198 
     262            0     19683000  -0.24378096 0.0037190445   -31.213742   -31.213742 
     263            0     19683000  -0.13557726 0.0037190445   -31.264349   -31.264349 
     264            0     19683000  -0.17075989 0.0037190445     -31.2938     -31.2938 
     265            0     19683000  -0.22147734 0.0037190445   -31.317424   -31.317424 
     266            0     19683000   -0.1860888 0.0037190445   -31.385672   -31.385672 
     267            0     19683000  -0.12487236 0.0037190445   -31.423031   -31.423031 
     268            0     19683000 -0.052707817 0.0037190445   -31.471243   -31.471243 
     269            0     19683000 -0.014555347 0.0037190445   -31.528385   -31.528385 
     270            0     19683000  0.035846329 0.0037190445   -31.574252   -31.574252 
     271            0     19683000   0.10351076 0.0037190445   -31.604399   -31.604399 
     272            0     19683000   0.12692113 0.0037190445   -31.653992   -31.653992 
     273            0     19683000  0.074111721 0.0037190445    -31.69576    -31.69576 
     274            0     19683000  0.084500282 0.0037190445   -31.726758   -31.726758 
     275            0     19683000   0.19136477 0.0037190445   -31.770406   -31.770406 
     276            0     19683000    0.2057094 0.0037190445   -31.811535   -31.811535 
     277            0     19683000   0.15494297 0.0037190445   -31.852757   -31.852757 
     278            0     19683000   0.23250277 0.0037190445   -31.931631   -31.931631 
     279            0     19683000     0.267793 0.0037190445   -31.978232   -31.978232 
     280            0     19683000   0.21592204 0.0037190445   -32.001886   -32.001886 
     281            0     19683000   0.16280297 0.0037190445   -32.064591   -32.064591 
     282            0     19683000   0.23798087 0.0037190445   -32.111329   -32.111329 
     283            0     19683000    0.2575608 0.0037190445    -32.13469    -32.13469 
     284            0     19683000   0.19166343 0.0037190445   -32.185394   -32.185394 
     285            0     19683000   0.22061955 0.0037190445   -32.242931   -32.242931 
     286            0     19683000   0.32556285 0.0037190445   -32.287149   -32.287149 
     287            0     19683000   0.20469601 0.0037190445   -32.357856   -32.357856 
     288            0     19683000  0.042471084 0.0037190445   -32.389153   -32.389153 
     289            0     19683000  0.022112665 0.0037190445   -32.419338   -32.419338 
     290            0     19683000  0.090619055 0.0037190445   -32.485184   -32.485184 
     291            0     19683000 0.0071676151 0.0037190445   -32.513467   -32.513467 
     292            0     19683000  -0.10824199 0.0037190445   -32.533993   -32.533993 
     293            0     19683000  -0.14138986 0.0037190445   -32.613295   -32.613295 
     294            0     19683000  -0.11018658 0.0037190445   -32.641496   -32.641496 
     295            0     19683000  -0.16551192 0.0037190445   -32.666388   -32.666388 
     296            0     19683000  -0.26390821 0.0037190445   -32.705217   -32.705217 
     297            0     19683000  -0.25158074 0.0037190445   -32.727497   -32.727497 
     298            0     19683000  -0.20849341 0.0037190445   -32.742812   -32.742812 
     299            0     19683000  -0.20911767 0.0037190445   -32.765627   -32.765627 
     300            0     19683000  -0.21239813 0.0037190445    -32.77659    -32.77659 
     301            0     19683000  -0.16782537 0.0037190445     -32.7968     -32.7968 
     302            0     19683000  -0.17140281 0.0037190445   -32.818951   -32.818951 
     303            0     19683000  -0.19617031 0.0037190445   -32.827606   -32.827606 
     304            0     19683000  -0.16628708 0.0037190445   -32.839786   -32.839786 
     305            0     19683000  -0.10778007 0.0037190445   -32.855754   -32.855754 
     306            0     19683000   -0.1107309 0.0037190445   -32.862091   -32.862091 
     307            0     19683000  -0.12943514 0.0037190445   -32.868326   -32.868326 
     308            0     19683000  -0.11023253 0.0037190445   -32.877825   -32.877825 
     309            0     19683000 -0.088815954 0.0037190445   -32.881706   -32.881706 
     310            0     19683000 -0.091271919 0.0037190445   -32.887479   -32.887479 
     311            0     19683000 -0.074980182 0.0037190445   -32.896313   -32.896313 
     312            0     19683000 -0.041410088 0.0037190445   -32.899969   -32.899969 
     313            0     19683000 -0.023177741 0.0037190445   -32.902721   -32.902721 
     314            0     19683000 -0.020116508 0.0037190445   -32.908996   -32.908996 
     315            0     19683000  -0.01561362 0.0037190445   -32.911307   -32.911307 
     316            0     19683000  0.002000446 0.0037190445   -32.913109   -32.913109 
     317            0     19683000 -0.0058784011 0.0037190445   -32.915482   -32.915482 
     318            0     19683000 -0.021059415 0.0037190445   -32.917362   -32.917362 
     319            0     19683000  0.014950861 0.0037190445   -32.919822   -32.919822 
     320            0     19683000  0.065401105 0.0037190445   -32.923688   -32.923688 
     321            0     19683000  0.057816837 0.0037190445     -32.9253     -32.9253 
     322            0     19683000   0.04532329 0.0037190445   -32.927597   -32.927597 
     323            0     19683000   0.07161941 0.0037190445   -32.931374   -32.931374 
     324            0     19683000  0.088844013 0.0037190445   -32.932701   -32.932701 
     325            0     19683000  0.071484642 0.0037190445     -32.9337     -32.9337 
     326            0     19683000  0.042575566 0.0037190445   -32.936025   -32.936025 
     327            0     19683000  0.066739121 0.0037190445   -32.937714   -32.937714 
     328            0     19683000  0.071586218 0.0037190445   -32.938631   -32.938631 
     329            0     19683000  0.055788113 0.0037190445   -32.940667   -32.940667 
     330            0     19683000  0.052426667 0.0037190445   -32.941664   -32.941664 
     331            0     19683000  0.037675588 0.0037190445   -32.943524   -32.943524 
     332            0     19683000 0.0081282914 0.0037190445   -32.945016   -32.945016 
     333            0     19683000 -0.0044787116 0.0037190445   -32.945572   -32.945572 
     334            0     19683000 -0.0075693847 0.0037190445   -32.946711   -32.946711 
     335            0     19683000 -0.014406515 0.0037190445   -32.948047   -32.948047 
     336            0     19683000 -0.027157415 0.0037190445   -32.948603   -32.948603 
     337            0     19683000  -0.03272806 0.0037190445   -32.949921   -32.949921 
     338            0     19683000 -0.019062231 0.0037190445   -32.950743   -32.950743 
     339            0     19683000 -0.023956151 0.0037190445   -32.951274   -32.951274 
     340            0     19683000 -0.044514393 0.0037190445    -32.95229    -32.95229 
     341            0     19683000 -0.044521666 0.0037190445   -32.952861   -32.952861 
     342            0     19683000 -0.035204377 0.0037190445   -32.953346   -32.953346 
     343            0     19683000 -0.036783483 0.0037190445   -32.954403   -32.954403 
     344            0     19683000 -0.045522084 0.0037190445    -32.95506    -32.95506 
     345            0     19683000 -0.046831706 0.0037190445   -32.956331   -32.956331 
     346            0     19683000  -0.04280497 0.0037190445   -32.957815   -32.957815 
     347            0     19683000 -0.054522754 0.0037190445   -32.958599   -32.958599 
     348            0     19683000 -0.067322288 0.0037190445    -32.96033    -32.96033 
     349            0     19683000 -0.053898855 0.0037190445   -32.961519   -32.961519 
     350            0     19683000 -0.053676618 0.0037190445   -32.962006   -32.962006 
     351            0     19683000 -0.062816971 0.0037190445    -32.96333    -32.96333 
     352            0     19683000 -0.046691799 0.0037190445   -32.964463   -32.964463 
     353            0     19683000 -0.032739225 0.0037190445   -32.965029   -32.965029 
     354            0     19683000 -0.033049552 0.0037190445   -32.966169   -32.966169 
     355            0     19683000 -0.036701806 0.0037190445   -32.967053   -32.967053 
     356            0     19683000  -0.02497655 0.0037190445   -32.967874   -32.967874 
     357            0     19683000 -0.0036356564 0.0037190445   -32.968787   -32.968787 
     358            0     19683000 -0.004197119 0.0037190445   -32.969338   -32.969338 
     359            0     19683000 -0.005557352 0.0037190445   -32.969678   -32.969678 
     360            0     19683000 0.0088644998 0.0037190445   -32.970301   -32.970301 
     361            0     19683000  0.017209207 0.0037190445   -32.970951   -32.970951 
     362            0     19683000  0.014936428 0.0037190445   -32.971423   -32.971423 
     363            0     19683000  0.016689882 0.0037190445   -32.971794   -32.971794 
     364            0     19683000  0.026268813 0.0037190445   -32.972491   -32.972491 
     365            0     19683000  0.032607429 0.0037190445   -32.973123   -32.973123 
     366            0     19683000  0.031362471 0.0037190445   -32.973599   -32.973599 
     367            0     19683000  0.034068717 0.0037190445   -32.974158   -32.974158 
     368            0     19683000  0.045349272 0.0037190445   -32.974652   -32.974652 
     369            0     19683000  0.045420474 0.0037190445   -32.975084   -32.975084 
     370            0     19683000  0.027326462 0.0037190445   -32.975949   -32.975949 
     371            0     19683000  0.028160691 0.0037190445   -32.976829   -32.976829 
     372            0     19683000  0.040398516 0.0037190445   -32.977397   -32.977397 
     373            0     19683000  0.033338469 0.0037190445   -32.978057   -32.978057 
     374            0     19683000  0.017807884 0.0037190445   -32.978959   -32.978959 
     375            0     19683000  0.024585415 0.0037190445   -32.979672   -32.979672 
     376            0     19683000  0.034573306 0.0037190445   -32.980147   -32.980147 
     377            0     19683000  0.025268368 0.0037190445   -32.980628   -32.980628 
     378            0     19683000  0.011345429 0.0037190445   -32.980932   -32.980932 
Loop time of 0.461138 on 64 procs for 378 steps with 3125 atoms

98.8% CPU use with 64 MPI tasks x 1 OpenMP threads

Minimization stats:
  Stopping criterion = energy tolerance
  Energy initial, next-to-last, final = 
         241456.093462     -32.9806280165     -32.9809320215
  Force two-norm initial, final = 96777.1 0.610934
  Force max component initial, final = 4749.47 0.046444
  Final line search alpha, max atom move = 0.54609 0.0253626
  Iterations, force evaluations = 378 843

MPI task timing breakdown:
Section |  min time  |  avg time  |  max time  |%varavg| %total
---------------------------------------------------------------
Pair    | 0.0038931  | 0.0085757  | 0.01845    |   3.7 |  1.86
Bond    | 0.0068996  | 0.014371   | 0.027376   |   4.3 |  3.12
Neigh   | 0.0057673  | 0.0063963  | 0.0068774  |   0.4 |  1.39
Comm    | 0.0027595  | 0.010481   | 0.021709   |   4.9 |  2.27
Output  | 0.30021    | 0.30048    | 0.30505    |   0.1 | 65.16
Modify  | 0          | 0          | 0          |   0.0 |  0.00
Other   |            | 0.1208     |            |       | 26.20

Nlocal:    48.8281 ave 92 max 25 min
Histogram: 9 14 9 6 11 6 1 2 1 5
Nghost:    34.8906 ave 121 max 0 min
Histogram: 20 12 2 17 5 0 0 0 2 6
Neighs:    251.953 ave 539 max 129 min
Histogram: 13 11 15 6 4 7 3 1 3 1

Total # of neighbors = 16125
Ave neighs/atom = 5.16
Ave special neighs/atom = 5.76
Neighbor list builds = 44
Dangerous builds = 0
undump         	iphase

timestep       	1
velocity       	all create ${eqmT} 34875304 dist gaussian units box
velocity       	all create 293 34875304 dist gaussian units box
fix	       	ensemble all nve
fix 		thermostat all langevin ${eqmT} ${eqmT} 100.0 39847
fix 		thermostat all langevin 293 ${eqmT} 100.0 39847
fix 		thermostat all langevin 293 293 100.0 39847
fix		compress all deform 1 x scale 0.167 y scale 0.167 z scale 0.167
# the factor to scale is chose with some calculation based off on the initial density and where we need to get to in order to reach in the ballpark of desired density and average ambient pressure
# this factor depends on the molecular system
fix		output_pressure all ave/time 10 100 1000 v_pxx v_pyy v_pzz v_pxy v_pxz v_pyz c_thermo_press ave one file outfiles/pressure.tensor.out
fix 		state_variables all ave/time 10 100 1000 c_thermo_temp v_vol v_rho v_etotal v_a v_b v_c ave one file outfiles/state.variables.out
thermo         	10000
thermo_style   	custom step temp vol press density pe etotal
dump           	gphase1 all atom 10000 outfiles/dumpgphase1.atom	#note this will produce a rather heavy movie file of about 100 MB
dump_modify    	gphase1 first yes
dump_modify    	gphase1 scale no
run            	10000000	# you could perform the compression even more slowly if any irregularities arise during the deformation (can be seen in the movie)
Per MPI rank memory allocation (min/avg/max) = 9.73 | 9.819 | 10.38 Mbytes
Step Temp Volume Press Density PotEng TotEng 
     378          293     19683000    6.3479194 0.0037190445   -32.980932    2695.4499 
   10000    292.44051     19635709    1.0416864 0.0037280014    2566.8648    5290.0857 
   20000     298.5226     19586641    3.5072299 0.0037373407    2519.5747    5299.4322 
   30000    287.65971     19537655  -0.20878582 0.0037467113    2597.9047    5276.6065 
   40000    289.50382     19488751    3.3276596 0.0037561132    2606.7584    5302.6326 
   50000    292.77462     19439928    3.2508085 0.0037655465    2543.8261    5270.1581 
   60000    296.11246     19391187    3.5129823 0.0037750115    2596.9789    5354.3932 
   70000    285.80012     19342527    -1.926871 0.0037845083    2647.9219    5309.3071 
   80000    293.90198     19293949   -3.9936456 0.0037940369    2652.3301    5389.1602 
   90000    297.07235     19245452   -2.4021496 0.0038035975    2682.0897    5448.4424 
  100000    296.70496     19197036   -2.2878784 0.0038131903    2640.4587    5403.3903 
  110000    291.16708     19148702    0.7151227 0.0038228154    2691.6992    5403.0618 
  120000    296.44291     19100449    5.0435119 0.0038324728    2735.4265    5495.9179 
  130000    292.16108     19052277   -1.7298308 0.0038421629    2694.3599    5414.9787 
  140000    297.35884     19004186   -2.7988537 0.0038518856    2714.6934     5483.714 
  150000    293.60588     18956177   0.18314193 0.0038616412    2727.8614    5461.9342 
  160000    293.67019     18908248  -0.16362658 0.0038714297    2595.8466    5330.5183 
  170000    284.46971     18860400   -3.5040932 0.0038812514    2661.0628    5310.0591 
  180000    290.91358     18812632    1.8430582 0.0038911063    2637.0898    5346.0918 
  190000    290.57673     18764946 -0.074822575 0.0039009946    2722.3544    5428.2196 
  200000    290.90319     18717340   -6.1800746 0.0039109164    2691.6939    5400.5991 
  210000    293.89587     18669815     2.136774 0.0039208719    2663.1819    5399.9551 
  220000    292.68553     18622370  0.031949314 0.0039308613    2616.2376    5341.7401 
  230000    300.27415     18575006    4.5746111 0.0039408846     2609.574     5405.742 
  240000    285.78635     18527722    4.3573912 0.0039509419    2679.7087    5340.9657 
  250000    297.27781     18480518 -0.016081586 0.0039610336    2641.7123    5409.9783 
  260000    294.25914     18433395    -2.448869 0.0039711596    2667.6651    5407.8211 
  270000    294.77928     18386351    2.2104221 0.0039813202    2670.7957    5415.7952 
  280000    293.78546     18339388  -0.99615846 0.0039915155    2670.9249      5406.67 
  290000    290.68663     18292505   0.15184304 0.0040017456     2639.642    5346.5306 
  300000    294.54679     18245702   0.17258286 0.0040120107    2649.3055    5392.1402 
  310000    295.84603     18198979   -2.2751715  0.004022311    2622.2159    5377.1491 
  320000    289.38944     18152335    3.7098462 0.0040326465    2679.8099    5374.6191 
  330000     294.3855     18105772   -2.3093498 0.0040430175    2620.2126    5361.5453 
  340000    289.25859     18059288   0.68086776 0.0040534241    2609.1892    5302.7798 
  350000    297.40132     18012884  -0.30222273 0.0040638664    2643.0632    5412.4793 
  360000    289.43059     17966559   -3.2883131 0.0040743446    2611.4956    5306.6879 
  370000    297.64639     17920314   -1.7429905 0.0040848589    2555.2674    5326.9657 
  380000     289.1347     17874148    2.8681504 0.0040954094    2627.4603    5319.8973 
  390000     287.2757     17828061  -0.11450085 0.0041059962     2641.993    5317.1189 
  400000    292.03151     17782054    1.1261628 0.0041166196    2582.2745    5301.6867 
  410000    284.28784     17736126  -0.70950186 0.0041272796    2635.8287    5283.1314 
  420000    287.18846     17690277   -3.3919252 0.0041379765    2610.1463    5284.4598 
  430000    287.86464     17644508  -0.77881519 0.0041487104    2602.4645    5283.0746 
  440000    294.66356     17598817    2.4668981 0.0041594814    2574.0306    5317.9526 
  450000    295.31982     17553205   0.58799007 0.0041702898    2631.3277    5381.3609 
  460000    294.81374     17507672    2.0672771 0.0041811356    2701.4313    5446.7518 
  470000    297.72556     17462218  -0.44022235 0.0041920191    2646.2178    5418.6532 
  480000    293.33637     17416843   -2.6429913 0.0042029403    2618.0745    5349.6376 
  490000    291.19752     17371546   0.11010131 0.0042138996    2591.0356    5302.6817 
  500000     290.2026     17326328    2.2327299  0.004224897    2707.1539    5409.5352 
  510000    304.45838     17281189      2.26299 0.0042359327     2610.171    5445.3029 
  520000    301.73145     17236128    3.5816431 0.0042470068    2598.2016      5407.94 
  530000    298.14554     17191145  -0.41305334 0.0042581196    2583.9298    5360.2761 
  540000    290.37417     17146241    3.1496543 0.0042692712    2635.9543    5339.9332 
  550000    291.12058     17101415   -1.7890489 0.0042804618    2682.9938    5393.9233 
  560000    290.70906     17056667    1.8812794 0.0042916915    2556.9729    5264.0704 
  570000    300.13103     17011997  -0.59073708 0.0043029605    2627.9425    5422.7779 
  580000      285.587     16967406   -2.0719781  0.004314269    2637.7891    5297.1898 
  590000    296.37751     16922892   -4.5986834 0.0043256172    2605.9823    5365.8647 
  600000    288.50431     16878456   -3.9917156 0.0043370052    2698.1365    5384.7032 
  610000    297.01307     16834098   -3.2138539 0.0043484332    2571.5169    5337.3177 
  620000    301.32565     16789818   -1.3090315 0.0043599015    2649.7582    5455.7178 
  630000     290.3441     16745616   -1.7759978   0.00437141    2577.3508    5281.0497 
  640000    294.76111     16701491    3.7146636 0.0043829591    2603.2116    5348.0419 
  650000    293.94029     16657444   0.61552272  0.004394549    2655.3491     5392.536 
  660000    289.84019     16613474    -4.908162 0.0044061797    2646.4233    5345.4298 
  670000     300.6773     16569582   0.53964674 0.0044178515    2597.9038    5397.8261 
  680000     296.7255     16525767    2.2771224 0.0044295646    2669.1259    5432.2487 
  690000     290.1416     16482030    2.1828252 0.0044413191    2632.0843    5333.8976 
  700000    288.92388     16438369   -1.7810615 0.0044531152    2584.2638    5274.7376 
  710000     292.2871     16394786   -2.9328533 0.0044649532    2673.1264    5394.9187 
  720000    287.79296     16351280   -2.2742886 0.0044768331    2649.9089    5329.8515 
  730000    292.80615     16307851   -5.2738268 0.0044887552    2650.2177    5376.8433 
  740000    287.99927     16264499  0.053907542 0.0045007197     2564.293    5246.1568 
  750000    288.95444     16221224    -2.562036 0.0045127268    2733.4794    5424.2378 
  760000    290.83464     16178026    2.5040246 0.0045247766    2598.8121    5307.0789 
  770000    295.65724     16134904    3.8338179 0.0045368693    2617.0236    5370.1988 
  780000    297.15632     16091859   0.81514844 0.0045490052    2642.8417    5409.9765 
  790000    294.73198     16048891   -1.5209298 0.0045611844    2590.7583    5335.3175 
  800000    293.88564     16006000    2.1384048 0.0045734071    2623.3082    5359.9861 
  810000    297.22452     15963184    2.2220259 0.0045856736    2592.1009    5359.8706 
  820000    297.92202     15920446  -0.57953029 0.0045979839    2707.6604    5481.9253 
  830000     292.8413     15877783    3.2425616 0.0046103383    2650.6795    5377.6324 
  840000    286.91113     15835197    3.8122146  0.004622737    2661.3519    5333.0829 
  850000      291.884     15792687   -1.0354871 0.0046351803    2600.3975    5318.4361 
  860000    293.82076     15750254   -3.3690675 0.0046476682    2596.1266    5332.2004 
  870000    300.94049     15707896    2.3885873  0.004660201    2573.8856    5376.2587 
  880000     295.0312     15665614  -0.49782704  0.004672779    2636.1268    5383.4723 
  890000    287.99368     15623408   -3.7464502 0.0046854022     2675.931    5357.7428 
  900000    296.90858     15581279   -1.1165459 0.0046980709    2661.3205    5426.1482 
  910000    292.61661     15539225   -0.5899093 0.0047107854    2657.6103     5382.471 
  920000    297.50836     15497246    1.7660304 0.0047235458    2594.2847    5364.6976 
  930000    300.80154     15455344    3.6046077 0.0047363523    2643.7612    5444.8404 
  940000    288.63247     15413517    3.4858435 0.0047492051    2619.8833    5307.6434 
  950000      298.204     15371765  0.025041702 0.0047621045     2720.271    5497.1617 
  960000     289.0043     15330089    3.1517139 0.0047750507    2673.2364     5364.459 
  970000    293.61901     15288489    2.2083918 0.0047880438    2661.9884    5396.1835 
  980000    299.18246     15246963    0.2612338 0.0048010841    2619.1832    5405.1854 
  990000    295.34241     15205513    6.0287364 0.0048141718    2577.1219    5327.3653 
 1000000    293.80088     15164138   0.31689501 0.0048273071     2612.368    5348.2566 
 1010000    294.77305     15122839  -0.63644024 0.0048404902    2696.6343    5441.5758 
 1020000    296.00887     15081614    3.9431928 0.0048537214    2632.9754     5389.425 
 1030000     289.7511     15040464   0.37617605 0.0048670008    2674.5344    5372.7113 
 1040000    297.71843     14999390     3.335899 0.0048803288    2684.1768    5456.5459 
 1050000    293.48613     14958390    1.0885321 0.0048937054    2675.6185    5408.5762 
 1060000    289.30801     14917464    2.4863432  0.004907131    2636.6248    5330.6757 
 1070000    288.32897     14876614    2.2918233 0.0049206057    2597.7638    5282.6977 
 1080000    291.15299     14835838    5.3318931 0.0049341298    2549.8814    5261.1128 
 1090000    294.34422     14795137   0.42876563 0.0049477036    2518.5164    5259.4646 
 1100000    293.90777     14754510     3.531958 0.0049613271    2615.8208    5352.7048 
 1110000    286.19198     14713958    1.2897165 0.0049750007    2671.1417    5336.1759 
 1120000    293.15306     14673480    2.9908586 0.0049887246    2630.0603    5359.9164 
 1130000    295.03239     14633077   0.20597899 0.0050024991    2604.0814     5351.438 
 1140000    294.21303     14592747     4.663438 0.0050163242    2623.3178    5363.0443 
 1150000    298.82924     14552492   0.68375124 0.0050302004    2633.7395    5416.4525 
 1160000    297.20116     14512311   -1.0638123 0.0050441278    2553.0723    5320.6245 
 1170000    293.79959     14472204   0.43583369 0.0050581067    2560.3466    5296.2233 
 1180000    300.51654     14432171    3.2292892 0.0050721373    2552.6665    5351.0917 
 1190000    289.71488     14392212  -0.56302017 0.0050862198    2598.9515    5296.7911 
 1200000    293.16152     14352326    5.7324692 0.0051003545    2527.3951      5257.33 
 1210000    294.15228     14312515    1.5271612 0.0051145416    2636.9828    5376.1438 
 1220000    291.52314     14272777    1.3268175 0.0051287813    2564.3203    5278.9986 
 1230000    282.69959     14233113 -0.076696227  0.005143074    2633.8623    5266.3752 
 1240000    298.46125     14193522   0.86800866 0.0051574199    2601.7712    5381.0575 
 1250000    295.34764     14154005   0.50118384 0.0051718191    2578.5723    5328.8645 
 1260000    291.97367     14114561   0.35486172  0.005186272    2481.6324     5200.506 
 1270000    294.00058     14075190    4.0698462 0.0052007788    2558.2438    5295.9921 
 1280000    291.70295     14035893   -2.3359427 0.0052153398    2554.0178    5270.3704 
 1290000    284.31482     13996669    2.4913091 0.0052299551    2609.2481    5256.8021 
 1300000    295.30845     13957518   -6.3287854 0.0052446252    2542.2111    5292.1383 
 1310000    290.29921     13918441    -2.851183 0.0052593501    2498.2283    5201.5092 
 1320000    294.54512     13879436   0.38406102 0.0052741302    2646.6749     5389.494 
 1330000    301.19314     13840504   -1.3298942 0.0052889658    2558.3131    5363.0389 
 1340000    293.89651     13801645    2.6439935  0.005303857    2577.7602    5314.5394 
 1350000    295.15355     13762859   -4.4523248 0.0053188042    2562.3966    5310.8814 
 1360000    298.14145     13724146  -0.28277554 0.0053338076    2594.7839    5371.0921 
 1370000    290.06807     13685505   0.31441885 0.0053488675    2525.2053    5226.3338 
 1380000    298.83084     13646937   -1.9861508 0.0053639842    2546.7435    5329.4714 
 1390000    288.12568     13608441   0.35326058 0.0053791579    2440.0158    5123.0566 
 1400000    293.20352     13570018   -1.5159515 0.0053943888    2493.0352    5223.3613 
 1410000    280.58026     13531667 -0.0052953927 0.0054096773     2435.753    5048.5306 
 1420000    292.63749     13493389    1.6463468 0.0054250236    2501.5507    5226.6058 
 1430000     299.5337     13455182    3.2568358 0.0054404281    2416.7883    5206.0613 
 1440000    295.42137     13417048   -8.5733563 0.0054558909    2473.5775    5224.5562 
 1450000     293.4919     13378987    1.2777497 0.0054714123    2426.1426     5159.154 
 1460000     294.1109     13340997   -1.8853835 0.0054869927    2417.5315    5156.3071 
 1470000    293.90788     13303079    5.1877001 0.0055026323    2390.3398    5127.2248 
 1480000    297.44168     13265233    -4.486819 0.0055183314    2432.1043    5201.8962 
 1490000    289.68836     13227459    8.0698687 0.0055340903     2466.453    5164.0456 
 1500000    300.13835     13189757 -0.085973453 0.0055499093    2407.1969    5202.1004 
 1510000    290.31761     13152126    2.7337054 0.0055657886    2390.6538    5094.1061 
 1520000    295.96521     13114567    5.3743952 0.0055817285    2443.9542    5199.9972 
 1530000    289.40409     13077080    1.6934639 0.0055977293    2393.9817    5088.9272 
 1540000    296.34158     13039664    2.2976887 0.0056137914    2416.9917    5176.5395 
 1550000    295.10127     13002319    2.9758053  0.005629915    2511.1949    5259.1928 
 1560000    290.89055     12965046   -1.8892646 0.0056461003    2371.1122    5079.8997 
 1570000    295.07741     12927845  -0.77191917 0.0056623478    2349.7272    5097.5029 
 1580000    296.77896     12890714   0.45946191 0.0056786577    2487.2362    5250.8569 
 1590000    290.47717     12853655    8.3740791 0.0056950303    2355.4083    5060.3465 
 1600000    295.81639     12816666  -0.76616993 0.0057114659    2381.9125    5136.5697 
 1610000    295.29327     12779749  -0.20941518 0.0057279647     2440.985    5190.7709 
 1620000    287.96176     12742903   0.33225669 0.0057445272    2412.5531    5094.0677 
 1630000    295.62624     12706127   -3.0838816 0.0057611536    2440.4867    5193.3732 
 1640000    292.43682     12669423   -2.0479499 0.0057778443    2413.7159    5136.9024 
 1650000    292.20413     12632789     5.389087 0.0057945994    2471.9765    5192.9962 
 1660000    295.24981     12596226    3.6631492 0.0058114195    2483.4593    5232.8405 
 1670000    289.38935     12559733    -4.372477 0.0058283046    2419.8419    5114.6501 
 1680000    294.53165     12523311     1.160403 0.0058452553    2488.8544     5231.548 
 1690000    294.76467     12486960  -0.26899608 0.0058622717    2442.9082    5187.7718 
 1700000     297.5509     12450679    4.6229737 0.0058793543    2381.1756    5151.9847 
 1710000    295.16491     12414468 -0.032243924 0.0058965033    2513.3268    5261.9174 
 1720000    291.88415     12378328    1.7154894  0.005913719    2470.1304    5188.1704 
 1730000    299.23457     12342257  0.044585438 0.0059310019    2466.2372    5252.7246 
 1740000    288.63219     12306257    1.4379414 0.0059483521    2410.2659    5098.0235 
 1750000    300.56142     12270327    1.8946789 0.0059657701    2324.2304    5123.0735 
 1760000    287.70754     12234467    2.5182126 0.0059832562     2402.172    5081.3191 
 1770000    290.39476     12198677    2.8096181 0.0060008107    2411.2448    5115.4156 
 1780000    291.13929     12162957    3.6745409 0.0060184339    2412.3489    5123.4527 
 1790000    295.67164     12127307   -3.6634652 0.0060361261    2421.9475    5175.2567 
 1800000    293.61605     12091726    2.0544176 0.0060538878      2399.83    5133.9975 
 1810000    290.19649     12056215   -2.0088269 0.0060717193    2381.0832    5083.4075 
 1820000    286.66434     12020773    2.6702922 0.0060896208    2366.2823    5035.7151 
 1830000    297.80437     11985402   -8.6305343 0.0061075928    2396.1777     5169.347 
 1840000    290.66587     11950099   -3.2072485 0.0061256356    2398.4301    5105.1254 
 1850000    289.13392     11914866   -2.2757491 0.0061437495    2401.3657    5093.7954 
 1860000    289.26249     11879702    1.9891884 0.0061619349    2373.1536    5066.7805 
 1870000    293.89707     11844608   -7.0091505 0.0061801922    2371.1473    5107.9317 
 1880000    298.28548     11809582   -0.6310557 0.0061985216    2391.2576    5168.9071 
 1890000    295.55399     11774626  -0.61914537 0.0062169236     2384.862    5137.0756 
 1900000     299.8585     11739739   -3.7007934 0.0062353985    2442.2325      5234.53 
 1910000    293.87932     11704921    2.1620738 0.0062539467    2351.4703    5088.0894 
 1920000    292.64879     11670172  -0.14827297 0.0062725686    2357.2287     5082.389 
 1930000    295.58117     11635491    -6.555148 0.0062912644    2395.1933    5147.6601 
 1940000    291.13557     11600880    1.9622904 0.0063100346     2436.487    5147.5561 
 1950000    294.18674     11566337 -0.056078203 0.0063288795    2368.6183    5108.1001 
 1960000    301.85531     11531863   -2.2224725 0.0063477996    2331.0195    5141.9114 
 1970000    290.76466     11497457    5.0542471 0.0063667952     2386.234    5093.8492 
 1980000    294.53435     11463120   -3.3296746 0.0063858666    2381.4738    5124.1926 
 1990000      293.563     11428851   -6.1375325 0.0064050143    2415.3143    5148.9878 
 2000000    295.62066     11394650   0.23464399 0.0064242385    2375.2036    5128.0382 
 2010000    286.39516     11360518   -1.1633289 0.0064435399     2404.752    5071.6782 
 2020000    288.95517     11326454    1.1174495 0.0064629186    2317.9836    5008.7487 
 2030000    290.82266     11292459    5.1966945 0.0064823751    2319.4099    5027.5652 
 2040000    279.54415     11258531   -1.0800168 0.0065019097    2403.4826    5006.6118 
 2050000    294.94199     11224671    2.9901354  0.006521523    2377.9062    5124.4209 
 2060000     292.3606     11190880   -2.1042918 0.0065412152    2347.0763     5069.553 
 2070000    288.11398     11157156    7.1786901 0.0065609867    2381.8274    5064.7593 
 2080000    302.37877     11123500   -1.5415747  0.006580838    2352.8934    5168.6598 
 2090000    293.21468     11089912    2.9795641 0.0066007695    2335.1638    5065.5937 
 2100000     292.7341     11056391    1.9516653 0.0066207816    2348.9931    5074.9479 
 2110000    284.52919     11022938    3.2787103 0.0066408746    2394.8235    5044.3738 
 2120000    292.76348     10989553    3.1941383 0.0066610491    2380.4654    5106.6937 
 2130000    294.81822     10956235    7.6726217 0.0066813053    2368.0894    5113.4516 
 2140000    286.37156     10922985    3.6649055 0.0067016437    2321.3221    4988.0285 
 2150000    298.92803     10889802   -2.1624883 0.0067220648    2267.4423    5051.0753 
 2160000    294.26197     10856686  -0.74027361 0.0067425689    2284.9304    5025.1127 
 2170000    296.29734     10823637    1.5454374 0.0067631565    2337.8886    5097.0245 
 2180000    288.13078     10790656   -1.2505881 0.0067838281    2313.5639    4996.6522 
 2190000    292.92949     10757741    8.3609332 0.0068045839    2324.8688     5052.643 
 2200000    293.45919     10724894    -6.416828 0.0068254245    2355.1688    5087.8756 
 2210000    299.16332     10692113    -4.863888 0.0068463503    2314.4032    5100.2271 
 2220000    293.14912     10659400   -3.9440035 0.0068673617    2279.6677    5009.4872 
 2230000    294.77317     10626753     1.978455 0.0068884592    2329.6458    5074.5884 
 2240000     292.7608     10594173   -1.8634592 0.0069096432    2358.3835    5084.5869 
 2250000    303.69171     10561659   0.29860439 0.0069309141    2331.4847    5159.4772 
 2260000    298.51347     10529212   0.51632721 0.0069522724    2362.0424    5141.8149 
 2270000    286.40091     10496832    2.6712613 0.0069737186    2367.9045    5034.8843 
 2280000    288.27727     10464518   -3.0304542 0.0069952531    2340.4036    5024.8561 
 2290000    288.39176     10432271   -3.9782271 0.0070168764    2328.3075    5013.8261 
 2300000    289.24627     10400089   -8.0110448 0.0070385888     2452.396     5145.872 
 2310000    299.29299     10367974   -2.3912062 0.0070603909     2253.006    5040.0375 
 2320000    290.46319     10335926   -2.2849118 0.0070822832    2311.8994    5016.7073 
 2330000    293.91146     10303943    3.8727654 0.0071042661    2293.1065    5030.0248 
 2340000    284.56766     10272026    7.6761518   0.00712634    2241.0187    4890.9271 
 2350000     290.3377     10240176    3.7766746 0.0071485055    2289.8547    4993.4941 
 2360000    280.52465     10208391   0.39534156  0.007170763    2306.6581    4918.9178 
 2370000    294.61832     10176672    -3.969802  0.007193113    2196.0709    4939.5716 
 2380000    292.12813     10145019    2.2011346 0.0072155559    2207.2748    4927.5867 
 2390000    298.50943     10113432  -0.18789493 0.0072380924    2245.8524    5025.5873 
 2400000    286.93875     10081910   -1.7549814 0.0072607228     2337.163    5009.1512 
 2410000    294.70149     10050454   0.42048992 0.0072834476    2368.6935    5112.9686 
 2420000    285.43806     10019063   -8.1501377 0.0073062673     2234.636    4892.6496 
 2430000    288.09973    9987737.7    2.4518354 0.0073291825    2293.9371    4976.7363 
 2440000    293.66638    9956477.7   0.58408084 0.0073521936    2266.1556    5000.7918 
 2450000    293.85216    9925283.1     4.497023 0.0073753012    2248.7227    4985.0889 
 2460000    295.17322    9894153.7     1.930885 0.0073985057    2290.1953    5038.8633 
 2470000    295.73404    9863089.5    1.7379471 0.0074218076     2284.107    5037.9973 
 2480000    290.39334    9832090.3   -8.8933194 0.0074452075    2221.6334    4925.7908 
 2490000    285.96778    9801156.2   -2.6700335 0.0074687058    2247.6171    4910.5635 
 2500000    295.80076      9770287    5.9367383 0.0074923032      2234.08    4988.5916 
 2510000    293.42107    9739482.7    2.6518324     0.007516    2211.1735    4943.5254 
 2520000    290.48396    9708743.3   -2.9322984 0.0075397969    2202.7028    4907.7042 
 2530000    290.51203    9678068.5   0.56157371 0.0075636944    2235.0693     4940.332 
 2540000    293.57063    9647458.5    1.8311647 0.0075876929    2245.6771    4979.4217 
 2550000    298.71465      9616913   -3.8109483 0.0076117931    2200.9615    4982.6074 
 2560000     294.5159    9586432.1    1.7105201 0.0076359955     2188.178     4930.725 
 2570000    293.86096    9556015.7   0.16220649 0.0076603005    2240.8156    4977.2637 
 2580000    300.27632    9525663.7   -5.4206674 0.0076847089    2268.6308    5064.8191 
 2590000    291.49759      9495376    4.7726045  0.007709221    2175.7311    4890.1714 
 2600000    298.23934    9465152.6    5.0527166 0.0077338375    2184.8681    4962.0879 
 2610000    295.86146    9434993.4     -2.58561 0.0077585589    2141.1148    4896.1917 
 2620000     286.5219    9404898.3    4.3295851 0.0077833858    2164.6695    4832.7759 
 2630000    297.08892    9374867.3    4.9371915 0.0078083188    2196.5774    4963.0844 
 2640000    284.94955    9344900.3   -5.7664384 0.0078333583    2234.1707    4887.6353 
 2650000    287.28493    9314997.2   -6.3241443  0.007858505    2178.7347    4853.9465 
 2660000     292.6735      9285158   -3.2136603 0.0078837595    2204.1407    4929.5311 
 2670000    291.24169    9255382.6    2.9579289 0.0079091223    2230.0083    4942.0657 
 2680000    294.44551    9225670.9    4.1085344  0.007934594    2193.0831    4934.9746 
 2690000    297.77453    9196022.8  -0.74342828 0.0079601752    2237.8789    5010.7704 
 2700000    292.22326    9166438.3    -2.728411 0.0079858665    2089.3301    4810.5278 
 2710000    291.69629    9136917.4    3.9498051 0.0080116684    2106.0106    4822.3012 
 2720000    286.38613    9107459.9   -11.812416 0.0080375816    2182.9772    4849.8194 
 2730000    298.42115    9078065.8   -4.6971414 0.0080636067    2161.1969    4940.1097 
 2740000    294.48512      9048735    7.5775786 0.0080897443    2201.8925    4944.1529 
 2750000    292.30549    9019467.4    2.4831153  0.008115995    2152.4733    4874.4368 
 2760000    289.63246      8990263    4.9343853 0.0081423594    2125.6224    4822.6945 
 2770000    295.67134    8961121.8    2.4773493  0.008168838    2093.9322    4847.2387 
 2780000    291.71569    8932043.5 -0.048068054 0.0081954316     2161.994    4878.4652 
 2790000    286.93723    8903028.3    2.5349143 0.0082221408    2225.8549     4897.829 
 2800000    288.80022    8874075.9   -3.0919169 0.0082489662    2069.6375    4758.9598 
 2810000    298.96065    8845186.4   0.67466278 0.0082759084    2118.1359    4902.0726 
 2820000    293.72304    8816359.7   -5.1340952  0.008302968    2125.5398    4860.7036 
 2830000       299.76    8787595.6    6.9796809 0.0083301457    2136.2484    4927.6287 
 2840000    290.28195    8758894.2   -3.3621002 0.0083574422     2139.807    4842.9272 
 2850000    300.40717    8730255.4   -3.5466168 0.0083848581    2125.2463    4922.6531 
 2860000    293.29208      8701679    5.6170398  0.008412394    2156.8577    4888.0084 
 2870000    292.13102    8673165.1    7.3738026 0.0084400506    2108.1262     4828.465 
 2880000    300.24722    8644713.5  -0.30250045 0.0084678286     2118.422    4914.3393 
 2890000     292.9268    8616324.2  -0.72735163 0.0084957286    2138.2423    4865.9915 
 2900000    295.67023    8587997.2   -4.0013938 0.0085237513    2144.5501    4897.8462 
 2910000    288.60005    8559732.3  -0.47604879 0.0085518974    2080.7727     4768.231 
 2920000    296.74025    8531529.4    -11.52288 0.0085801676    2170.8561    4934.1163 
 2930000    294.67352    8503388.6    3.6115427 0.0086085625    2128.6408    4872.6555 
 2940000    295.24229    8475309.8   -3.0610012 0.0086370828    2159.7409    4909.0521 
 2950000    295.95399    8447292.8   -2.8711502 0.0086657293    2110.4359    4866.3745 
 2960000    288.64849    8419337.6   -7.6363255 0.0086945025    2143.4652    4831.3745 
 2970000    293.66691    8391444.2    1.2908052 0.0087234033    2098.2803    4832.9215 
 2980000    291.36942    8363612.5    10.424229 0.0087524323    2088.2377    4801.4845 
 2990000    298.20704    8335842.3    7.1278797 0.0087815903    2166.8731    4943.7921 
 3000000    291.60029    8308133.8    4.3809786 0.0088108779    2198.9689    4914.3655 
 3010000    284.47561    8280486.6    5.7009357 0.0088402959     2185.495    4834.5463 
 3020000    298.10766    8252900.9    7.9973874 0.0088698451    2136.7723    4912.7659 
 3030000    291.45827    8225376.5   -5.2776779  0.008899526    2138.2111    4852.2852 
 3040000    287.16562    8197913.4    7.3865287 0.0089293396    2148.2574    4822.3582 
 3050000    293.64355    8170511.5   -1.5719404 0.0089592864    2108.7088    4843.1324 
 3060000    290.29012    8143170.7   -6.8256458 0.0089893673    2118.5552    4821.7515 
 3070000     286.2222    8115890.9   -8.4321728  0.009019583    2149.3278    4814.6435 
 3080000    292.88563    8088672.2    7.1315018 0.0090499343    2100.5901    4827.9559 
 3090000    288.10154    8061514.4   -4.0187231  0.009080422    2047.7001    4730.5163 
 3100000    295.70422    8034417.4    4.5333731 0.0091110467    2121.6152    4875.2279 
 3110000    295.93505    8007381.3   -8.7981633 0.0091418093    2088.6364    4844.3985 
 3120000    292.67122    7980405.8    9.7838993 0.0091727105    2122.3488     4847.718 
 3130000    287.87918      7953491   0.12502727 0.0092037512    2054.9095     4735.655 
 3140000    290.17176    7926636.8    9.6232719 0.0092349321    2168.8131    4870.9072 
 3150000    290.65292    7899843.1    15.380434  0.009266254      2102.92    4809.4948 
 3160000    299.52208    7873109.8   -7.1016079 0.0092977177    2102.7881    4891.9528 
 3170000    286.54111      7846437   -3.8406827  0.009329324    2074.3574    4742.6427 
 3180000    290.88173    7819824.4   0.94260546 0.0093610737    2034.4144    4743.1198 
 3190000    297.18377    7793272.1    5.5010478 0.0093929676    2103.4218     4870.812 
 3200000    292.42851    7766779.9    5.0707904 0.0094250066    2132.8182    4855.9273 
 3210000    299.68139    7740347.9   -6.1129964 0.0094571915    2066.9038    4857.5521 
 3220000     296.4536    7713975.9   -3.4842598 0.0094895231    2054.5032    4815.0941 
 3230000    287.20745    7687663.9   -5.0980028 0.0095220022     2077.842    4752.3323 
 3240000    296.49034    7661411.7    3.3115982 0.0095546297    2082.2263    4843.1593 
 3250000     294.5309    7635219.4    4.2691125 0.0095874065    2030.8134    4773.5001 
 3260000     292.4773    7609086.9   -8.6571333 0.0096203333    2065.8487    4789.4121 
 3270000    297.65945    7583014.1    7.4306511 0.0096534111    1989.3152    4761.1351 
 3280000    294.03196    7557000.8    2.5914087 0.0096866408    1972.4775     4710.518 
 3290000    296.71635    7531047.2   -6.8296809 0.0097200231    2024.2916    4787.3292 
 3300000    291.21229      7505153    2.9669594 0.0097535589    1988.6328    4700.4164 
 3310000    296.10977    7479318.3    -12.16099 0.0097872493    2004.7742    4762.1634 
 3320000    300.85204    7453542.9    -3.138129 0.0098210949    1999.7129    4801.2624 
 3330000    294.39379    7427826.8    6.4255675 0.0098550968    2006.2157    4747.6255 
 3340000      283.509    7402169.9    1.7264584 0.0098892559    1965.4013    4605.4515 
 3350000    297.43256    7376572.2    8.1681716  0.009923573    2041.0152    4810.7222 
 3360000    300.26624    7351033.6 -0.027772918  0.009958049    1949.2525    4745.3469 
 3370000    296.27441    7325553.9    3.9553844 0.0099926849    1909.4607     4668.383 
 3380000    293.35602    7300133.2   0.82405684  0.010027482    1915.1988    4646.9449 
 3390000    294.58675    7274771.4    5.0729287   0.01006244    2043.1526    4786.3593 
 3400000    288.38505    7249468.4   -5.4814388  0.010097561    1988.9173    4674.3734 
 3410000    300.33226    7224224.2    3.1173215  0.010132846    2052.9961    4849.7053 
 3420000    291.66769    7199038.6    4.6639014  0.010168296    1953.2107    4669.2349 
 3430000    296.20582    7173911.6    9.0739586  0.010203911    2086.4084     4844.692 
 3440000    299.32171    7148843.1     2.275077  0.010239692    2008.1484    4795.4473 
 3450000    297.05525    7123833.1   -8.0021869  0.010275641    2005.7036     4771.897 
 3460000    285.94022    7098881.6   -1.3043949  0.010311759    2036.8479    4699.5376 
 3470000    295.53061    7073988.3    7.4017925  0.010348045    2054.7645    4806.7605 
 3480000    293.60301    7049153.3   -11.984708  0.010384503    2014.2372    4748.2833 
 3490000     289.3621    7024376.5    4.4696123  0.010421132    1984.0557    4678.6103 
 3500000    297.37214    6999657.9   -4.4255602  0.010457933    1946.0305     4715.175 
 3510000    292.26607    6974997.2   -12.611364  0.010494908    1951.7557    4673.3521 
 3520000     293.2039    6950394.6   -8.1559577  0.010532057    2011.0173    4741.3468 
 3530000      289.426    6925849.9    14.180472  0.010569382    1951.4129    4646.5625 
 3540000    292.31982    6901363.1   -3.3407082  0.010606883    2036.8585    4758.9554 
 3550000    293.68146      6876934   -3.0769482  0.010644562    1969.9162    4704.6928 
 3560000    289.86288    6852562.7   -4.7450447   0.01068242    1887.2808    4586.4987 
 3570000    287.59259      6828249   -9.7905234  0.010720457     1944.543    4622.6197 
 3580000    294.99236    6803992.9    11.807285  0.010758676    1848.5695    4595.5533 
 3590000    291.96397    6779794.2    3.0599463  0.010797076    1938.6545    4657.4377 
 3600000    297.90492    6755653.1   -3.6753196  0.010835659    1945.3774    4719.4831 
 3610000    296.39104    6731569.3    1.6639104  0.010874426     2030.201    4790.2094 
 3620000    291.53191    6707542.8    6.4000623  0.010913378     1994.941    4709.7008 
 3630000    289.48671    6683573.6    5.5840848  0.010952517    1929.1031     4624.818 
 3640000    297.13781    6659661.5   0.42744678  0.010991843    1951.5548    4718.5172 
 3650000    298.09349    6635806.5    11.217813  0.011031357    1956.8134    4732.6751 
 3660000    298.72138    6612008.6    2.4999815  0.011071061     2002.612    4784.3206 
 3670000    291.33746    6588267.6   -3.3729954  0.011110956    1971.4797    4684.4289 
 3680000    305.54971    6564583.6   -5.0699524  0.011151043    2032.0299    4877.3243 
 3690000    296.24564    6540956.3    2.7871018  0.011191323    1961.8932    4720.5475 
 3700000    300.23164    6517385.8   -4.7622383  0.011231797    1900.3082    4696.0804 
 3710000    297.34553      6493872    7.6171789  0.011272466     1922.739    4691.6356 
 3720000    294.78944    6470414.9   -5.5469702  0.011313332    1962.7866    4707.8808 
 3730000    294.57375    6447014.3    -3.498764  0.011354396    1927.8652    4670.9509 
 3740000    293.32296    6423670.2    16.422725  0.011395659    1944.9718      4676.41 
 3750000    295.61319    6400382.5    2.7580667  0.011437122    1894.3011     4647.066 
 3760000    301.50243    6377151.1    2.2909516  0.011478786    1931.8209    4739.4268 
 3770000    295.45743      6353976   -6.9406853  0.011520653    1909.0246    4660.3391 
 3780000    288.93002    6330857.2   -4.0382897  0.011562724    1844.9161    4535.4471 
 3790000    294.51834    6307794.5   -3.1294287     0.011605     1890.407    4632.9767 
 3800000    290.22812    6284787.9    2.1572451  0.011647482    1865.7147    4568.3336 
 3810000     287.7807    6261837.2    4.9790319  0.011690172     1881.457    4561.2854 
 3820000    290.99014    6238942.6    2.1924053   0.01173307    1833.2939    4543.0089 
 3830000    292.06256    6216103.8   -6.0234274  0.011776179    1843.8585    4563.5599 
 3840000    289.51049    6193320.8   -17.708938    0.0118195    1936.3172    4632.2535 
 3850000    289.61858    6170593.5    8.4372848  0.011863033     1874.184    4571.1269 
 3860000    298.42032    6147921.9   -10.363712   0.01190678    1902.8384    4681.7435 
 3870000    279.36452    6125305.9  -0.98147755  0.011950742     1946.738    4548.1945 
 3880000    291.84202    6102745.5    10.278062  0.011994921    1971.7105    4689.3582 
 3890000    290.10138    6080240.5    18.661176  0.012039319    1911.4945    4612.9333 
 3900000     291.5708    6057790.9    4.2569302  0.012083935    1918.3024    4633.4245 
 3910000     289.7075    6035396.6    5.7160778  0.012128773    1884.2358    4582.0067 
 3920000    288.90158    6013057.6    1.8547851  0.012173832    1890.3201    4580.5862 
 3930000    284.84788    5990773.8    9.9085128  0.012219115    1914.5048    4567.0227 
 3940000    291.02545    5968545.1   -6.2490916  0.012264623    1895.8179    4605.8616 
 3950000    292.43877    5946371.4   -10.288777  0.012310357    1828.4132    4551.6178 
 3960000    285.33735    5924252.8   -1.4639643  0.012356318    1885.8685    4542.9443 
 3970000    290.82508      5902189   0.35393389  0.012402509    1851.8273    4560.0051 
 3980000    296.51008    5880180.1    7.0687578   0.01244893    1882.2739    4643.3908 
 3990000    294.16314      5858226   -4.9323628  0.012495583    1878.2148    4617.4769 
 4000000    292.75735    5836326.6   -7.3780438   0.01254247    1825.2967     4551.468 
 4010000    287.42956    5814481.9    1.1961872  0.012589592    1932.1027    4608.6613 
 4020000    298.42502    5792691.7   -2.3875879  0.012636949    1924.2201    4703.1691 
 4030000    288.13597      5770956    2.3543875  0.012684545     1856.899    4540.0358 
 4040000    289.52878    5749274.8    6.9142527   0.01273238    1851.0169    4547.1235 
 4050000    284.27656    5727647.9   -4.5961623  0.012780456    1872.9118    4520.1094 
 4060000    292.99083    5706075.4    8.4150221  0.012828774    1911.7333    4640.0787 
 4070000    292.75244    5684557.1    6.9894713  0.012877336    1954.7757    4680.9012 
 4080000    291.63401    5663092.9    3.5845052  0.012926144    1818.1573     4533.868 
 4090000    292.01735    5641682.9   -2.7862446  0.012975198    1894.6058    4613.8861 
 4100000    301.16031    5620326.9   -2.7314883  0.013024501    1846.5739     4650.994 
 4110000    298.00104    5599024.8    16.271859  0.013074054    1838.8552     4613.856 
 4120000    297.58277    5577776.6  -0.69488107  0.013123859    1766.2887    4537.3946 
 4130000    289.00336    5556582.3    15.344642  0.013173917    1863.6457    4554.8596 
 4140000    289.23225    5535441.7  -0.23588322   0.01322423    1938.5062    4631.8515 
 4150000    290.66439    5514354.8   -4.2019675  0.013274799    1840.8809    4547.5624 
 4160000    297.36784    5493321.5    3.3676407  0.013325627    1885.4961    4654.6005 
 4170000    285.29804    5472341.8   -8.0684323  0.013376714    1817.8648    4474.5746 
 4180000     295.3975    5451415.6    6.5598039  0.013428063    1826.5179    4577.2744 
 4190000    296.28483    5430542.8    8.1584112  0.013479675    1878.2335    4637.2529 
 4200000    293.25568    5409723.3   -10.689771  0.013531552    1809.3081    4540.1199 
 4210000    289.05857    5388957.1    5.3056387  0.013583695    1862.8213    4554.5494 
 4220000    292.88626    5368244.1    17.122716  0.013636107    1776.5381    4503.9097 
 4230000    297.84619    5347584.3   -4.4314569  0.013688789    1867.7665    4641.3252 
 4240000    292.96503    5326977.5   -9.2529741  0.013741742    1792.3993    4520.5045 
 4250000     290.5284    5306423.8   -8.0742037  0.013794969    1856.5809     4561.996 
 4260000    292.23687      5285923    4.9519654  0.013848471    1809.6223    4530.9468 
 4270000    292.02961      5265475    16.563616   0.01390225    1829.9033    4549.2978 
 4280000    291.10937    5245079.9  -0.14779651  0.013956308    1873.4356    4584.2609 
 4290000    284.99778    5224737.5    11.427048  0.014010647    1850.1386    4504.0523 
 4300000    289.00519    5204447.7   -1.3774408  0.014065268    1770.7476    4461.9786 
 4310000    297.99791    5184210.6     -14.5198  0.014120173    1792.4773    4567.4489 
 4320000    292.67768    5164025.9    4.8256955  0.014175365     1816.708    4542.1374 
 4330000    287.64377    5143893.8   -10.028069  0.014230844    1856.3914    4534.9448 
 4340000    298.23092      5123814    9.9601413  0.014286614    1849.0852    4626.2266 
 4350000    284.68024    5103786.6   -10.958389  0.014342675    1806.6755    4457.6323 
 4360000    288.87379    5083811.4    4.9319904   0.01439903    1781.3854    4471.3928 
 4370000       290.57    5063888.4    2.8835758  0.014455681    1787.6905     4493.493 
 4380000    293.78642    5044017.5    11.005861  0.014512629    1847.3887    4583.1428 
 4390000    290.04727    5024198.7   -5.7720474  0.014569876    1857.4405    4558.3753 
 4400000    292.35119    5004431.8   -4.3054295  0.014627425    1833.4263    4555.8154 
 4410000    298.34805    4984716.9    9.6395174  0.014685278    1824.4205    4602.6527 
 4420000    286.11092    4965053.8     9.660056  0.014743436    1848.4072    4512.6866 
 4430000    299.09023    4945442.5   -4.4357965  0.014801902    1746.8286     4531.972 
 4440000    284.54468    4925882.9    8.5454955  0.014860677    1781.9127    4431.6072 
 4450000    288.40318    4906374.9   -2.6631247  0.014919763    1772.7699    4458.3949 
 4460000    297.21735    4886918.5    -4.626052  0.014979164    1749.5694    4517.2724 
 4470000    290.71114    4867513.6    18.184995   0.01503888    1838.8941     4546.011 
 4480000    289.67866    4848160.2  -0.37290885  0.015098914    1905.8698    4603.3721 
 4490000    294.59537    4828858.1   0.30334568  0.015159268    1773.2963    4516.5833 
 4500000    287.55407    4809607.3   -6.9722721  0.015219944    1760.2978    4438.0158 
 4510000    293.20341    4790407.8   -5.7517661  0.015280944    1841.6062    4571.9312 
 4520000    299.12792    4771259.4    11.575521  0.015342271     1789.717    4575.2114 
 4530000    291.46214    4752162.1    -3.255641  0.015403926    1803.5619    4517.6721 
 4540000    284.20743    4733115.8    4.7309711  0.015465912    1830.6813    4477.2353 
 4550000    291.28892    4714120.5      10.0438  0.015528231    1779.1147    4491.6118 
 4560000    304.99379    4695176.1   -2.3597281  0.015590885    1774.6404     4614.758 
 4570000    298.20127    4676282.5    17.749904  0.015653877    1766.8881    4543.7534 
 4580000    297.18331    4657439.7   -4.4872813  0.015717209    1834.3267    4601.7127 
 4590000     290.9069    4638647.6   0.37212967  0.015780883    1811.7415    4520.6813 
 4600000    293.97264      4619906    16.209568  0.015844901    1718.9829    4456.4709 
 4610000    301.20629      4601215    13.887085  0.015909266    1786.9305    4591.7788 
 4620000    290.53461    4582574.5   -11.153323   0.01597398    1777.0246    4482.4976 
 4630000     283.7114    4563984.4   -1.7713484  0.016039045    1756.3987    4398.3336 
 4640000    290.85501    4545444.7   -10.779308  0.016104464      1775.44    4483.8966 
 4650000    295.22987    4526955.2    7.0108521   0.01617024    1786.8068    4536.0023 
 4660000    297.68523      4508516   -5.9867143  0.016236374    1801.4822    4573.5421 
 4670000    295.76475    4490126.8    5.0020076   0.01630287    1679.6307     4433.807 
 4680000    292.79973    4471787.8    2.5903051  0.016369729    1772.7434    4499.3093 
 4690000    289.79703    4453498.7    14.032388  0.016436954    1692.3496    4390.9541 
 4700000    294.43364    4435259.6    11.300907  0.016504547    1707.8541    4449.6351 
 4710000    288.18853    4417070.4  -0.96354179  0.016572512    1720.3053    4403.9314 
 4720000    294.11616    4398930.9    4.6940703  0.016640851    1646.1296    4384.9541 
 4730000    293.54073    4380841.2    13.373248  0.016709565    1748.6058    4482.0719 
 4740000    287.35809    4362801.1     14.85925  0.016778659    1733.1382    4409.0313 
 4750000     293.2803    4344810.7   -1.9975861  0.016848134    1824.4244    4555.4654 
 4760000    294.15683    4326869.7   -10.002083  0.016917993    1784.5915    4523.7948 
 4770000     293.1883    4308978.3   -1.8612478  0.016988239    1747.4282    4477.6125 
 4780000    296.19287    4291136.2    16.440757  0.017058874    1732.1907    4490.3536 
 4790000    302.73456    4273343.4    22.926435  0.017129902    1763.0857    4582.1652 
 4800000    287.08454    4255599.9    2.1531754  0.017201324     1661.737    4335.0828 
 4810000    290.84929    4237905.5   -1.8553971  0.017273144    1746.5283    4454.9316 
 4820000    295.75844    4220260.3    11.527415  0.017345364    1734.1725    4488.2901 
 4830000    295.92815    4202664.1   -11.266443  0.017417988    1746.9893    4502.6872 
 4840000    291.60713    4185116.9    4.2736481  0.017491017    1748.0623    4463.5227 
 4850000    289.63017    4167618.7   -19.151819  0.017564456    1694.2645    4391.3153 
 4860000    289.02636    4150169.2    8.7104855  0.017638305    1732.2839     4423.712 
 4870000    297.00161    4132768.5     8.004816   0.01771257    1687.5873    4453.2813 
 4880000    296.00213    4115416.6   -13.728078  0.017787252    1700.1657    4456.5526 
 4890000     306.1392    4098113.3    21.483345  0.017862355    1653.2046    4503.9884 
 4900000    292.66006    4080858.5    4.5758532  0.017937881    1715.5898    4440.8551 
 4910000    292.51608    4063652.2   -1.2515174  0.018013833    1777.6918    4501.6163 
 4920000    291.28951    4046494.4    10.849587  0.018090215    1771.7659    4484.2686 
 4930000    295.93816      4029385   -3.5602611  0.018167029    1693.2184    4449.0095 
 4940000    294.43029    4012323.8     10.49525  0.018244278    1679.4796    4421.2294 
 4950000    294.91259    3995310.9    6.2678556  0.018321967    1717.9404    4464.1813 
 4960000    292.01068    3978346.1   -16.516723  0.018400097    1695.6462    4414.8645 
 4970000    289.30086    3961429.4    2.0647878  0.018478671     1690.119    4384.1032 
 4980000    298.49131    3944560.8   -8.5453232  0.018557694    1653.3784    4432.9445 
 4990000    290.76454    3927740.1   -5.5603006  0.018637168    1661.1903    4368.8044 
 5000000    285.17464    3910967.2   -6.6501121  0.018717097    1662.0444    4317.6051 
 5010000    284.87897    3894242.3    9.5059556  0.018797483    1627.3499    4280.1573 
 5020000     306.8367      3877565   -15.514916   0.01887833    1732.4797    4589.7586 
 5030000    290.55626    3860935.4   -12.143462  0.018959642    1648.4306    4354.1052 
 5040000    289.60185    3844353.5    2.9771458  0.019041421    1747.3237    4444.1108 
 5050000    288.39412    3827819.1   -5.5775388  0.019123671    1624.3825    4309.9231 
 5060000    286.96856    3811332.2   -1.6679255  0.019206395    1724.5961    4396.8618 
 5070000    294.08836    3794892.6      18.9735  0.019289598    1673.5604    4412.1261 
 5080000    291.14293    3778500.5    18.376133  0.019373281    1690.7986    4401.9363 
 5090000    285.50032    3762155.6    12.244527   0.01945745    1667.6922    4326.2856 
 5100000    296.40867    3745857.9   -18.788395  0.019542106    1634.8062    4394.9787 
 5110000    293.74957    3729607.3   -2.4774445  0.019627255    1680.5396    4415.9504 
 5120000    293.62648    3713403.8    19.958315  0.019712899    1608.6116    4342.8762 
 5130000    298.61212    3697247.3    7.4119943  0.019799041    1534.4291    4315.1203 
 5140000    297.59516    3681137.7   -8.7078964  0.019885687    1595.0302    4366.2514 
 5150000    289.96483      3665075   -11.313994  0.019972839     1614.921    4315.0882 
 5160000    290.94368    3649059.1   -23.740241  0.020060501    1658.5179    4367.8002 
 5170000    292.48749    3633089.9   -11.395561  0.020148676    1707.0026    4430.6609 
 5180000    284.32386    3617167.4   -18.915403  0.020237369    1638.1842    4285.8224 
 5190000    294.48779    3601291.5   -10.814529  0.020326584    1577.8869    4320.1721 
 5200000    288.26905    3585462.1   -3.5605769  0.020416323    1580.5066    4264.8826 
 5210000    292.90672    3569679.1    5.2629799  0.020506592    1631.0971    4358.6593 
 5220000    294.34336    3553942.5   -3.3704788  0.020597393    1530.0668    4271.0071 
 5230000    287.80815    3538252.3     2.683627  0.020688732    1534.6728    4214.7569 
 5240000    296.79997    3522608.3    19.608936  0.020780611    1510.7288    4274.5451 
 5250000    294.62842    3507010.4  -0.90980221  0.020873035    1592.8061    4336.4008 
 5260000     294.2175    3491458.7    13.466024  0.020966008    1625.0272    4364.7955 
 5270000    290.95855    3475953.1   -3.6634933  0.021059534    1645.7362     4355.157 
 5280000    295.79437    3460493.4   -1.1845343  0.021153617    1603.0515    4357.5036 
 5290000     289.4496    3445079.6   -20.292167  0.021248262    1522.0927     4217.462 
 5300000    287.51033    3429711.6   -22.772624  0.021343472     1590.457    4267.7678 
 5310000    299.24716    3414389.4  0.036780452  0.021439251    1547.8214     4334.426 
 5320000    294.43221      3399113     10.82946  0.021535605    1654.1018    4395.8695 
 5330000    299.52791    3383882.1     -4.96438  0.021632536    1675.2021    4464.4212 
 5340000    294.82578    3368696.8   -1.6019067  0.021730051    1664.2732    4409.7059 
 5350000    290.63688    3353557.1    9.2251884  0.021828152    1619.5362    4325.9616 
 5360000    300.29158    3338462.7    31.144107  0.021926844    1535.4692    4331.7996 
 5370000    292.15793    3323413.7    15.542492  0.022026133    1626.1847    4346.7741 
 5380000    292.58266      3308410   -15.169969  0.022126022     1611.148    4335.6926 
 5390000    290.70618    3293451.5   -33.153251  0.022226516    1569.5557    4276.6264 
 5400000    290.70201    3278538.2   -17.003141  0.022327619    1628.4287    4335.4605 
 5410000    292.67517      3263670    3.1488562  0.022429336    1591.4821    4316.8881 
 5420000    296.67328    3248846.8   -13.921731  0.022531673    1661.5575     4424.194 
 5430000    287.36182    3234068.5   -7.7625614  0.022634632    1550.1236    4226.0514 
 5440000    289.57643    3219335.2     6.335673   0.02273822     1542.941    4239.4914 
 5450000    290.32387    3204646.6   -26.636248  0.022842441    1569.7172    4273.2277 
 5460000    296.91579    3190002.8   -13.422665    0.0229473    1565.1728    4330.0677 
 5470000    295.22365    3175403.7    2.4440076  0.023052802    1634.0516    4383.1892 
 5480000    284.84708    3160849.2   -15.583765  0.023158952    1562.6727    4215.1831 
 5490000    303.14913    3146339.2    23.241646  0.023265754    1515.3621    4338.3021 
 5500000    298.30048    3131873.7   -23.444875  0.023373214    1601.7709    4379.5601 
 5510000    289.27007    3117452.6    3.3872494  0.023481336    1585.8621    4279.5597 
 5520000     297.0321    3103075.8   -13.978496  0.023590127    1623.8957    4389.8736 
 5530000    289.03509    3088743.3   -5.8244062  0.023699591    1588.6402    4280.1496 
 5540000    295.97094      3074455    17.138037  0.023809733    1669.4833    4425.5797 
 5550000    295.12299    3060210.9    8.2940715  0.023920558    1586.0965    4334.2967 
 5560000    276.64398    3046010.8   -2.7303046  0.024032073    1559.3732     4135.496 
 5570000    298.67414    3031854.7   -2.6927333  0.024144282     1578.382    4359.6507 
 5580000    289.73137    3017742.5   -19.382373   0.02425719    1597.0731    4295.0663 
 5590000    295.61329    3003674.2    18.973629  0.024370803     1611.709     4364.475 
 5600000    300.18124    2989649.6    16.298784  0.024485127    1505.8119    4301.1148 
 5610000    294.71324    2975668.9   -8.4361759  0.024600168     1556.186    4300.5706 
 5620000    287.93983    2961731.7   -18.436029   0.02471593    1574.0857     4255.396 
 5630000    289.43096    2947838.1    6.3189353  0.024832419    1571.1923    4266.3881 
 5640000    305.06433    2933988.1   -5.0404903  0.024949642    1528.4146    4369.1891 
 5650000    294.28654    2920181.5   -6.6492172  0.025067603    1600.6549    4341.0661 
 5660000    295.64919    2906418.3   -11.355951   0.02518631    1610.0385    4363.1387 
 5670000    296.23543    2892698.4   -8.1189691  0.025305767    1590.3785    4348.9378 
 5680000    294.28025    2879021.8    15.681463  0.025425981    1548.5343    4288.8868 
 5690000    285.46424    2865388.3    11.254879  0.025546957    1482.8728    4141.1303 
 5700000    297.40469    2851797.9    32.402911  0.025668702    1557.5571    4327.0047 
 5710000    291.41631    2838250.6   -2.0723672  0.025791222    1486.8862    4200.5696 
 5720000    290.01358    2824746.2   -2.3694093  0.025914523    1572.5357    4273.1568 
 5730000    299.46409    2811284.8    2.7972621  0.026038611    1496.7301    4285.3548 
 5740000    298.47111    2797866.2   -13.933498  0.026163493     1582.518     4361.896 
 5750000    294.30064    2784490.3    -14.75215  0.026289175    1540.7452    4281.2876 
 5760000    296.35685    2771157.2    9.8702579  0.026415662    1531.3264    4291.0164 
 5770000    289.28556    2757866.7    2.6015937  0.026542963    1528.2824    4222.1242 
 5780000    300.81588    2744618.7    9.0432975  0.026671083    1559.8606    4361.0733 
 5790000     294.3983    2731413.3   -27.835014  0.026800028    1515.8432    4257.2951 
 5800000    290.00402    2718250.2    4.0238615  0.026929806    1486.9334    4187.4655 
 5810000    291.79564    2705129.5   -3.2045032  0.027060424     1548.652    4265.8678 
 5820000    296.21452    2692051.2    10.956656  0.027191888    1480.8667    4239.2313 
 5830000    301.31464      2679015   0.45158147  0.027324204    1492.9095    4298.7667 
 5840000    290.92264      2666021    11.078586   0.02745738    1485.8354    4194.9218 
 5850000    290.19968    2653069.1   -25.374154  0.027591424     1453.193    4155.5471 
 5860000    295.03102    2640159.1   -22.841191  0.027726341    1502.0319    4249.3756 
 5870000    298.27626    2627291.2   -4.9780889  0.027862139    1468.2402    4245.8038 
 5880000    293.87009    2614465.1   -1.6242145  0.027998826    1480.0104    4216.5435 
 5890000     291.2184    2601680.8    31.937456  0.028136408    1500.6085     4212.449 
 5900000    292.16879    2588938.3    25.151965  0.028274893    1510.2008    4230.8913 
 5910000    287.79001    2576237.4    1.7335174  0.028414288    1528.0283    4207.9434 
 5920000    290.18627    2563578.2    3.7274346  0.028554601     1519.532    4221.7612 
 5930000    289.07109    2550960.5   -3.7687509  0.028695839    1482.7602    4174.6049 
 5940000    294.98904    2538384.2   0.77263393  0.028838011    1484.8672    4231.8201 
 5950000    292.67036    2525849.4    3.4120885  0.028981123    1542.3067    4267.6679 
 5960000    291.29999    2513355.9     30.20153  0.029125184    1427.1679    4139.7681 
 5970000    294.99984    2500903.7    14.431615  0.029270201    1508.4657    4255.5192 
 5980000    290.55822    2488492.6    24.451208  0.029416182    1379.8801     4085.573 
 5990000    297.37007    2476122.7   -23.902577  0.029563136    1462.6173    4231.7424 
 6000000    296.34485    2463793.9   -11.009423   0.02971107    1522.9368    4282.5151 
 6010000    293.48713      2451506   -1.3732214  0.029859993    1467.5597    4200.5267 
 6020000    288.16254    2439259.1    -7.147013  0.030009913     1512.705    4196.0891 
 6030000    289.37141      2427053    16.245258  0.030160838     1456.841    4151.4823 
 6040000     289.9395    2414887.7   -10.758029  0.030312777    1451.4216    4151.3529 
 6050000    293.52932    2402763.1   -27.300072  0.030465738    1507.6897    4241.0496 
 6060000    304.17876    2390679.2   -16.209299   0.03061973    1403.7365    4236.2645 
 6070000    295.52994    2378635.9   -35.094495  0.030774762    1407.6998    4159.6896 
 6080000    294.30488      2366633     15.31005  0.030930842    1516.5834    4257.1653 
 6090000    288.04335    2354670.7   -17.357327  0.031087979    1477.8297    4160.1039 
 6100000     296.3498    2342748.7    6.1269893  0.031246182    1427.8336    4187.4579 
 6110000    291.96505      2330867   -3.5127178  0.031405461    1538.2092    4257.0026 
 6120000    294.05836    2319025.5    -8.916232  0.031565824    1474.4449    4212.7312 
 6130000    288.71491    2307224.3   -7.7988817  0.031727281    1449.4038    4137.9317 
 6140000    288.95079    2295463.1   -13.896016  0.031889841    1426.9965    4117.7208 
 6150000    289.52153      2283742    7.4007719  0.032053513    1366.8016    4062.8408 
 6160000    295.50121    2272060.8   -33.592414  0.032218307    1464.9211    4216.6432 
 6170000    294.26296    2260419.5   -11.466518  0.032384233    1397.1798    4137.3713 
 6180000    296.66863    2248818.1   -31.132529    0.0325513    1385.4436    4148.0368 
 6190000    298.98229    2237256.4   -1.9783209  0.032719518    1431.7441    4215.8823 
 6200000    300.09677    2225734.5    -5.247751  0.032888897    1460.5151    4255.0314 
 6210000    297.53377    2214252.1   -4.5667902  0.033059448    1387.0267    4157.6763 
 6220000    288.36333    2202809.3    22.914809   0.03323118    1422.1641     4107.418 
 6230000    293.73791      2191406   -2.6036519  0.033404103    1510.6942    4245.9964 
 6240000    294.83541    2180042.2   -26.596865  0.033578228    1427.4204    4172.9426 
 6250000     285.4573    2168717.6    13.234138  0.033753565    1464.8534    4123.0462 
 6260000    295.51394    2157432.4    -40.11947  0.033930125    1409.7393      4161.58 
 6270000    304.76083    2146186.4     5.744145  0.034107919    1381.9666    4219.9149 
 6280000    296.77108    2134979.5    29.540093  0.034286958    1356.8747     4120.422 
 6290000    289.44178    2123811.7    10.764415  0.034467251    1452.8885    4148.1849 
 6300000    291.13608      2112683    10.676606  0.034648811    1427.5262    4138.6001 
 6310000    292.34699    2101593.1    -9.209767  0.034831648    1451.2493    4173.5993 
 6320000    290.95341    2090542.2    13.334131  0.035015774    1456.2519    4165.6248 
 6330000    299.14467      2079530     -28.8261    0.0352012    1379.7392    4165.3894 
 6340000    288.23515    2068556.6    11.356942  0.035387937    1428.7784    4112.8386 
 6350000    287.07351    2057621.9    22.509329  0.035575998    1412.7048    4085.9478 
 6360000    296.93456    2046725.8   -29.878482  0.035765393    1420.9203    4185.9899 
 6370000    303.92948    2035868.2     2.549485  0.035956135    1453.8512     4284.058 
 6380000      298.332    2025049.1   -19.736933  0.036148236    1368.9253    4147.0081 
 6390000    304.13672    2014268.3   -3.2281677  0.036341708    1387.6306    4219.7671 
 6400000    293.75827    2003525.9   -13.066028  0.036536563    1404.3258    4139.8177 
 6410000    293.09381    1992821.8    17.408411  0.036732814    1413.2465    4142.5509 
 6420000    286.61419    1982155.9   -16.252783  0.036930472    1385.0863    4054.0522 
 6430000    295.37089      1971528    35.206158  0.037129552    1438.7441    4189.2528 
 6440000    287.87547    1960938.3   -10.076339  0.037330064    1468.4168    4149.1277 
 6450000     292.2201    1950386.5    22.270669  0.037532023    1427.2329    4148.4013 
 6460000    296.23206    1939872.7   -21.767789  0.037735442    1455.4976    4214.0256 
 6470000    295.30335    1929396.7    5.1144472  0.037940333    1415.4556    4165.3353 
 6480000    293.94619    1918958.4     18.48044   0.03814671      1499.45    4236.6918 
 6490000     290.4212      1908558   -4.7513516  0.038354587    1384.7119    4089.1288 
 6500000    284.39768    1898195.1    8.9311902  0.038563977    1423.5411    4071.8666 
 6510000    289.81794    1887869.8   -40.518717  0.038774894    1399.1894    4097.9887 
 6520000    294.21227    1877582.1    13.691572  0.038987352    1396.8825     4136.602 
 6530000    296.60581    1867331.8    1.1123186  0.039201364    1339.0003    4101.0086 
 6540000    289.56788    1857118.8    3.7485009  0.039416946    1400.1335    4096.6042 
 6550000    294.12524    1846943.2    13.853693  0.039634112    1330.6785    4069.5876 
 6560000    294.19214    1836804.8   -20.818807  0.039852876    1382.5276    4122.0597 
 6570000    296.65815    1826703.5   -23.812334  0.040073252    1415.3321    4177.8278 
 6580000    292.45108    1816639.4   -57.468854  0.040295257     1384.659    4107.9782 
 6590000    293.72549    1806612.3    19.435105  0.040518905    1378.4003    4113.5869 
 6600000    295.51567    1796622.2     40.31022   0.04074421    1419.5282    4171.3851 
 6610000    291.96458      1786669    38.335141  0.040971189    1350.2873    4069.0762 
 6620000     290.7002    1776752.6   -4.6072282  0.041199858    1404.5228    4111.5378 
 6630000    293.99727    1766872.9    24.688492  0.041430231    1340.9346     4078.652 
 6640000    301.57264      1757030    33.317417  0.041662324    1371.8584    4180.1181 
 6650000    288.92061    1747223.6   -21.655007  0.041896155    1468.7236    4159.1669 
 6660000    294.77088    1737453.9    4.4532619  0.042131739    1361.1249    4106.0463 
 6670000    300.85639    1727720.6    35.844687  0.042369092    1305.9766    4107.5665 
 6680000    289.34009    1718023.7   -11.527548  0.042608232    1405.3105    4099.6601 
 6690000    302.40296    1708363.2   -28.984568  0.042849174    1419.5144    4235.5061 
 6700000    295.77496      1698739    19.571179  0.043091937    1409.7884    4164.0598 
 6710000    296.21846    1689150.9   -4.4006635  0.043336537    1349.6389    4108.0402 
 6720000    296.40407    1679599.1   -57.339024  0.043582992    1332.4703    4092.5999 
 6730000    294.32744    1670083.3   -2.0748684  0.043831319    1385.4962    4126.2882 
 6740000     296.7007    1660603.5    37.273199  0.044081536    1276.7789    4039.6709 
 6750000    289.46341    1651159.6    15.258211  0.044333661    1335.0616    4030.5595 
 6760000    300.09607    1641751.7    21.263675  0.044587713    1366.2441    4160.7539 
 6770000    297.38394    1632379.5    53.701328   0.04484371    1326.7541    4096.0084 
 6780000    296.38506    1623043.1  -0.15420232   0.04510167    1234.3873      3994.34 
 6790000    304.81767    1613742.3   -69.587865  0.045361612    1312.5308    4151.0083 
 6800000    287.33334    1604477.1   -18.377672  0.045623556     1355.316    4030.9786 
 6810000    295.63151    1595247.5   -24.385568   0.04588752    1336.9413    4089.8769 
 6820000    283.79939    1586053.3    7.5723823  0.046153525    1354.0205    3996.7747 
 6830000    288.73579    1576894.6   -23.737747   0.04642159    1404.4266    4093.1489 
 6840000    298.61804    1567771.1  -0.14739147  0.046691734    1338.5467     4119.293 
 6850000    292.95004    1558682.9   -66.093901  0.046963979     1381.759    4109.7245 
 6860000    297.76102    1549629.9    11.140957  0.047238345    1347.2859    4120.0516 
 6870000    290.00931      1540612   -5.0726815  0.047514851    1342.4631    4043.0444 
 6880000    296.03411    1531629.2   -17.200269   0.04779352    1332.1774     4088.862 
 6890000    298.18995    1522681.4    -36.68335  0.048074373    1307.6458    4084.4056 
 6900000     293.4393    1513768.5    5.8454918   0.04835743    1284.7088    4017.2303 
 6910000    288.17744    1504890.4   -34.408447  0.048642714    1338.7829    4022.3058 
 6920000    294.87151    1496047.1   -21.737305  0.048930246    1204.3296     3950.188 
 6930000    294.62585    1487238.5    2.1059588  0.049220049    1281.8936    4025.4644 
 6940000    295.28706    1478464.6   -26.144085  0.049512145    1257.4517    4007.1797 
 6950000    293.97155    1469725.2    33.516412  0.049806556    1259.7081    3997.1861 
 6960000    297.99636    1461020.4      15.3744  0.050103307    1233.2421    4008.1993 
 6970000    288.94733      1452350    65.567028   0.05040242    1313.1648     4003.857 
 6980000     291.0664    1443713.9   -33.105436  0.050703918    1217.0959    3927.5209 
 6990000    285.54985    1435112.2    2.8429236  0.051007826    1338.4433     3997.498 
 7000000    301.43573    1426544.7    70.944249  0.051314167    1291.2028    4098.1875 
 7010000    290.36285    1418011.3   0.92703038  0.051622967    1302.3033    4006.1768 
 7020000    300.17761    1409512.1    18.384844  0.051934249    1236.1197    4031.3888 
 7030000    287.22927    1401046.9   -23.329468  0.052248039    1311.2582    3985.9516 
 7040000    299.04067    1392615.6    6.4412693  0.052564362    1317.8733    4102.5552 
 7050000    296.79325    1384218.3    32.970647  0.052883243     1294.982    4058.7358 
 7060000    288.13767    1375854.8   -46.169268  0.053204709    1332.6814     4015.834 
 7070000    294.26468      1367525    57.849871  0.053528786    1365.7512    4105.9588 
 7080000    293.07669    1359228.9    3.0987023  0.053855501     1287.122     4016.267 
 7090000    302.05946    1350966.4    15.377829  0.054184879    1334.7043    4147.4973 
 7100000    289.93591    1342737.5    24.600657  0.054516949    1169.9985    3869.8964 
 7110000    287.58463    1334542.1   -9.3511539  0.054851738    1245.9569    3923.9595 
 7120000    300.13756    1326380.1    10.203771  0.055189274    1219.5099     4014.406 
 7130000    295.82757    1318251.4   -36.926878  0.055529584    1203.7353    3958.4966 
 7140000    292.36292      1310156     46.18522  0.055872699    1255.4104    3977.9087 
 7150000    291.30002    1302093.8    52.851287  0.056218646     1250.411    3963.0115 
 7160000    294.86216    1294064.8    6.4514993  0.056567455    1157.2532    3903.0246 
 7170000    295.17853    1286068.8   -0.6268156  0.056919156    1222.6012    3971.3187 
 7180000    291.62864    1278105.9    27.604945  0.057273778    1186.2265    3901.8872 
 7190000    288.77112    1270175.9    8.8758521  0.057631352     1181.986    3871.0372 
 7200000    295.45409    1262278.7  -0.13600047  0.057991909     1153.323    3904.6065 
 7210000    299.41473    1254414.4   -59.933188   0.05835548    1188.8953    3977.0604 
 7220000    296.36356    1246582.7    31.139941  0.058722097     1234.934    3994.6865 
 7230000    296.54533    1238783.8   -28.093582   0.05909179     1140.323     3901.768 
 7240000    294.15805    1231017.4    41.298311  0.059464594     1165.366    3904.5807 
 7250000    300.94554    1223283.6    28.618661   0.05984054    1248.2815    4050.7016 
 7260000    290.30645    1215582.2   -42.310213  0.060219662    1185.8605    3889.2089 
 7270000    300.94583    1207913.3    60.593943  0.060601994    1119.4203    3921.8431 
 7280000    293.03953    1200276.6    23.592002  0.060987568    1197.6326    3926.4315 
 7290000    299.01905    1192672.2    1.4153273  0.061376421    1119.2789    3903.7594 
 7300000    292.26938      1185100   -37.325561  0.061768586    1134.4706    3856.0979 
 7310000     291.1606    1177559.9     2.727211    0.0621641    1142.5233    3853.8255 
 7320000     293.7293    1170051.9   -58.172629  0.062562997    1170.4736    3905.6957 
 7330000    290.41299    1162575.8   -15.881999  0.062965315    1240.8856     3945.226 
 7340000    288.53834    1155131.7    31.304298   0.06337109    1134.7863    3821.6699 
 7350000    296.05742    1147719.4    9.1772495  0.063780358     1149.944    3906.8457 
 7360000     292.6217    1140338.8    20.417595  0.064193159    1160.9448    3885.8529 
 7370000    291.85064      1132990   -44.253198  0.064609529    1158.6349    3876.3628 
 7380000    294.67771    1125672.8   -22.262526  0.065029509    1159.2691    3903.3228 
 7390000    290.80909    1118387.2    3.9525449  0.065453136    1240.9099    3948.9389 
 7400000    299.18651    1111133.1    1.9802721  0.065880451    1196.5803    3982.6202 
 7410000    298.25897    1103910.5    19.786809  0.066311493    1147.4887    3924.8913 
 7420000    294.34324    1096719.2   -42.360803  0.066746304    1139.8111    3880.7502 
 7430000    296.33404    1089559.2   -11.471696  0.067184925    1090.9884    3850.4659 
 7440000    291.61498    1082430.4    17.581042  0.067627397    1157.9898    3873.5232 
 7450000    291.99912    1075332.8    1.3135922  0.068073763    1066.0777    3785.1883 
 7460000    289.38264    1068266.3   -14.399896  0.068524067    1124.0854    3818.8311 
 7470000    286.50124    1061230.8   -45.423093   0.06897835    1113.4395    3781.3535 
 7480000    296.55867    1054226.3    34.159529  0.069436659    1139.7421    3901.3115 
 7490000    301.96417    1047252.7   -34.732538  0.069899036    1022.9025    3834.8082 
 7500000    297.90121    1040309.9    38.509053  0.070365528    1045.0675    3819.1386 
 7510000    288.06473    1033397.8   -28.324673   0.07083618    1092.2927     3774.766 
 7520000    289.87172    1026516.4   -31.648024  0.071311038    1144.9889    3844.2891 
 7530000    301.10433    1019665.7   -57.866417  0.071790151    1071.8614    3875.7602 
 7540000     296.2207    1012845.5    40.503995  0.072273565      1094.81    3853.2321 
 7550000    294.83905    1006055.7   -16.396576  0.072761329    1145.7337    3891.2899 
 7560000    290.84724    999296.41    53.484175  0.073253493    1110.3968     3818.781 
 7570000    294.05714    992567.44     28.85482  0.073750105     1057.726     3796.001 
 7580000    293.74886    985868.74   -2.7027714  0.074251216    1042.7074    3778.1116 
 7590000    294.27213    979200.25    31.452547  0.074756877    1066.4052    3806.6821 
 7600000    290.59074    972561.89   -66.398406   0.07526714    1036.7793     3742.775 
 7610000    285.37993    965953.61    30.994089  0.075782058    1079.1319    3736.6043 
 7620000    298.32226    959375.33     -60.2334  0.076301683    1020.8639    3798.8559 
 7630000    284.37301    952826.99    9.4078705   0.07682607    1074.5017    3722.5976 
 7640000    297.64185     946308.5   -10.171049  0.077355273    1034.1949    3805.8508 
 7650000    293.13681    939819.82    55.073749  0.077889347    1073.0494    3802.7542 
 7660000    304.95617    933360.87    15.951135   0.07842835    1047.9811    3887.7483 
 7670000    292.70342    926931.57   -84.906431  0.078972337    1064.7311    3790.4002 
 7680000     288.7953    920531.87   -14.200831  0.079521366     1091.392    3780.6684 
 7690000    289.06922     914161.7   -32.081858  0.080075497    1089.0019    3780.8291 
 7700000    300.74184    907820.98   -33.551469  0.080634788     967.1047    3767.6279 
 7710000    296.29447    901509.65    31.052267    0.0811993    998.97559    3758.0847 
 7720000     294.1723    895227.64   -34.445519  0.081769094    1047.7544    3787.1018 
 7730000    290.32324    888974.88   -31.974938  0.082344231    1070.2635    3773.7682 
 7740000    292.78285     882751.3   -8.8571773  0.082924775    1078.4672    3804.8759 
 7750000    289.95537    876556.84    88.963016  0.083510788    980.50195     3680.581 
 7760000    298.05203    870391.42    20.565427  0.084102337    994.30033    3769.7759 
 7770000     285.3194    864254.98   -1.7140981  0.084699486    1041.1628    3698.0714 
 7780000    296.05185    858147.45    45.498064  0.085302301      1004.24    3761.0898 
 7790000    293.31109    852068.77    10.102032   0.08591085    1075.4295    3806.7572 
 7800000    294.28998    846018.86  -0.88791223  0.086525202    965.57826    3706.0215 
 7810000    288.37046    839997.65    76.326665  0.087145425    953.94006    3639.2603 
 7820000    292.01885    834005.08   -42.414638  0.087771591    978.69456    3697.9889 
 7830000    296.18343    828041.08   -9.5372075  0.088403769    969.90832    3727.9834 
 7840000    293.82017    822105.58   0.56601042  0.089042033    931.61548    3667.6838 
 7850000    296.59116    816198.51   -12.663706  0.089686457    892.76031    3654.6322 
 7860000     292.3763    810319.81   -86.905331  0.090337114    927.94608     3650.569 
 7870000    299.51066     804469.4    44.329412   0.09099408     940.2487    3729.3071 
 7880000    297.89517    798647.22     45.32431  0.091657431    957.55432    3731.5692 
 7890000    295.93308    792853.19   -10.387102  0.092327247    931.85838    3687.6022 
 7900000    291.82077    787087.26    32.902557  0.093003604    995.30792    3712.7577 
 7910000     291.2077    781349.36    48.895799  0.093686584    957.01979    3668.7606 
 7920000    287.12972     775639.4    34.670778  0.094376268     973.7674    3647.5339 
 7930000     293.3247    769957.33    112.92111  0.095072739    1010.2639    3741.7184 
 7940000     296.0371    764303.08   -39.450179  0.095776079    970.92219    3727.6347 
 7950000    295.31297    758676.58    50.922499  0.096486374    964.97607    3714.9454 
 7960000    287.53854    753077.77     6.580136   0.09720371    903.90585    3581.4792 
 7970000    294.79121    747506.56    59.014765  0.097928174    896.96243    3642.0731 
 7980000    296.13397     741962.9    10.825281  0.098659855    1031.2381    3788.8526 
 7990000    284.61421    736446.71    54.415663  0.099398844    919.42099    3569.7629 
 8000000    293.83492    730957.94     18.89226   0.10014523    923.25828    3659.4639 
 8010000     294.6337     725496.5     51.42024   0.10089911    927.57774    3671.2216 
 8020000    286.38614    720062.34    -13.99716   0.10166058     867.2033    3534.0455 
 8030000    290.12413    714655.38    41.586989   0.10242972    903.96669    3605.6173 
 8040000    289.15568    709275.55   -37.502166   0.10320665    892.03374     3584.666 
 8050000    284.88248     703922.8   -3.1956741   0.10399145    975.33349    3628.1736 
 8060000    294.17034    698597.04    22.550815   0.10478423    905.11086      3644.44 
 8070000    299.33481    693298.21    25.944349   0.10558509    1026.2672    3813.6882 
 8080000    293.06033    688026.24    10.545316   0.10639413    850.31875    3579.3114 
 8090000    296.73593    682781.07    81.366692   0.10721146    833.89416    3597.1141 
 8100000    286.81763    677562.62   -20.371224   0.10803718    967.53084    3638.3911 
 8110000    290.55997    672370.83    92.474838    0.1088714    852.70017    3558.4093 
 8120000    294.58122    667205.63     227.5067   0.10971423    958.90834    3702.0636 
 8130000    286.71169    662066.95    113.75509   0.11056579    898.54085    3568.4146 
 8140000    298.89501    656954.73    26.153906   0.11142618    890.04603    3673.3715 
 8150000    292.94305    651868.88   -38.220058   0.11229552    904.96211    3632.8626 
 8160000    303.48119    646809.36   -26.084235   0.11317392    854.28308    3680.3153 
 8170000    299.55381    641776.08   -20.721289   0.11406152    893.41356    3682.8738 
 8180000    291.86547    636768.98   -99.943749   0.11495841    877.33907    3595.2051 
 8190000     299.6861    631787.99    25.220927   0.11586474    888.71269    3679.4048 
 8200000    293.15154    626833.05   -48.226482   0.11678062    784.84398    3514.6859 
 8210000     291.3455    621904.08    146.82659   0.11770618    862.77594       3575.8 
 8220000    294.74262    617001.02    68.724592   0.11864154    856.86011    3601.5183 
 8230000    298.95853    612123.79    115.72676   0.11958684    877.99258    3661.9096 
 8240000    294.48627    607272.34    13.530434   0.12054221    870.30431    3612.5753 
 8250000    291.11419    602446.58   -28.727531   0.12150779    777.94672    3488.8168 
 8260000     297.0537    597646.47   -6.4923534    0.1224837    755.74591    3521.9249 
 8270000    292.90075    592871.91   -127.07031    0.1234701    861.02981    3588.5364 
 8280000     284.7379    588122.86   -64.361055   0.12446711     789.1011    3440.5949 
 8290000    286.63644    583399.23   -39.360942   0.12547489    810.70577    3479.8788 
 8300000    291.32789    578700.96   -161.40957   0.12649357     777.9993    3490.8594 
 8310000    293.90808    574027.98   -80.846933   0.12752332    881.94878    3618.8357 
 8320000    288.91234    569380.23   -11.810992   0.12856427    829.06378    3519.4301 
 8330000    287.69437    564757.64    109.90476   0.12961658    818.58731    3497.6119 
 8340000    293.04963    560160.13   -48.569284    0.1306804    841.48745    3570.3804 
 8350000    300.18534    555587.64   -47.182248   0.13175591     877.1586    3672.4997 
 8360000    286.27925     551040.1   -20.183226   0.13284324     798.3799    3464.2268 
 8370000    297.80497    546517.44    25.897445   0.13394257    763.66897     3536.844 
 8380000     301.8556     542019.6    6.3272371   0.13505407    792.69664    3603.5913 
 8390000    295.29658    537546.51   -30.106581    0.1361779    784.36049    3534.1772 
 8400000    293.95853    533098.09   -9.1826314   0.13731423    827.61873    3564.9754 
 8410000    297.06518    528674.28   -65.184669   0.13846324    674.20015    3440.4862 
 8420000     289.3838    524275.02   -66.739899    0.1396251    694.08226    3388.8388 
 8430000    292.05416    519900.22    96.362074       0.1408    690.55703    3410.1801 
 8440000     289.3746    515549.84    41.735178   0.14198812    783.05321    3477.7241 
 8450000    296.63606    511223.78   -17.405201   0.14318965    748.00021    3510.2902 
 8460000    290.33774       506922    160.68461   0.14440477    733.81264    3437.4523 
 8470000     293.1277    502644.42    107.31408   0.14563367    743.71501    3473.3349 
 8480000    285.47022    498390.96    67.051703   0.14687656    687.79937    3346.1125 
 8490000    294.75179    494161.58   -1.6777356   0.14813364    635.36016    3380.1037 
 8500000    300.53543    489956.18    14.475262    0.1494051    686.76454    3485.3656 
 8510000    287.21547    485774.72   -119.66505   0.15069115    743.58291    3418.1479 
 8520000    299.81061    481617.11   -163.56005   0.15199201    724.20573    3516.0573 
 8530000    296.92015    477483.29    107.50154   0.15330788    723.44346    3488.3789 
 8540000    289.46592     473373.2    110.22837   0.15463899    690.76435    3386.2857 
 8550000    299.11559    469286.76   -100.05552   0.15598555     715.0779    3500.4574 
 8560000    289.06251     465223.9    58.756535   0.15734779    667.14369    3358.9084 
 8570000    286.42454    461184.56   -185.72709   0.15872594    622.52559    3289.7254 
 8580000    292.46282    457168.67    42.574574   0.16012023    623.91828    3347.3469 
 8590000     290.5523    453176.17   -133.47817    0.1615309    590.80809    3296.4458 
 8600000    291.31468    449206.97   -204.52611   0.16295818     629.7546    3342.4917 
 8610000    295.30832    445261.02   -120.04274   0.16440234    711.80923    3461.7352 
 8620000    294.04036    441338.25   -105.07196    0.1658636    691.58079    3429.6995 
 8630000    292.32836    437438.58    43.427652   0.16734224    669.84581    3392.0223 
 8640000    292.92281    433561.95    24.215688   0.16883851    569.55229    3297.2643 
 8650000     293.8816     429708.3    32.023194   0.17035266    593.32159     3329.962 
 8660000    294.61865    425877.54    59.085666   0.17188498    586.97767    3330.4814 
 8670000    288.46134    422069.63    6.4279499   0.17343573    669.12078    3355.2874 
 8680000    291.60318    418284.47    158.18422   0.17500519    597.22795    3312.6515 
 8690000    292.52394    414522.02    103.14454   0.17659364    689.12665    3413.1244 
 8700000    290.29101     410782.2    56.879409   0.17820137    642.03794    3345.2426 
 8710000    291.53647    407064.94    157.60676   0.17982869     550.1874    3264.9898 
 8720000    293.01345    403370.17    8.3574892   0.18147587    698.19868    3426.7548 
 8730000    287.85963    399697.83   -143.28017   0.18314323    651.08547     3331.649 
 8740000    296.19174    396047.84    13.280991   0.18483109    529.88822    3288.0407 
 8750000    299.63612    392420.14    28.019909   0.18653974    563.83001    3354.0567 
 8760000    294.61589    388814.67   -131.16173   0.18826953    627.64926    3371.1273 
 8770000     293.5165    385231.34    121.77815   0.19002076    593.60943    3326.8499 
 8780000    295.12744     381670.1    -29.08065   0.19179378    650.73546    3398.9771 
 8790000    300.63525    378130.87   -222.52187   0.19358893    604.29662    3403.8273 
 8800000     295.1412     374613.6     1.753565   0.19540655     598.2407    3346.6105 
 8810000    294.58379     371118.2     -133.369     0.197247    547.35558    3290.5348 
 8820000    294.39614    367644.61    56.226704   0.19911064    597.45121     3338.883 
 8830000    292.54269    364192.77   -29.001364   0.20099782    635.09827    3359.2706 
 8840000    289.15403     360762.6   -6.5186357   0.20290893    604.81655    3297.4335 
 8850000    294.94239    357354.03   -70.154608   0.20484435    640.09498    3386.6135 
 8860000    293.77475       353967     14.67812   0.20680445    632.22339    3367.8687 
 8870000    290.08394    350601.45   -145.33884   0.20878965    545.76079    3247.0371 
 8880000    292.95449    347257.29    266.19982   0.21080033     574.9974    3303.0044 
 8890000    291.54678    343934.47    159.84803   0.21283692    591.83007    3306.7285 
 8900000    293.68969    340632.91    32.552562   0.21489982    625.24449    3360.0977 
 8910000    287.05102    337352.55    155.89419   0.21698948    540.48731     3213.521 
 8920000    293.14244    334093.31    102.68918   0.21910631    572.87013    3302.6274 
 8930000    291.17561    330855.14   -13.842944   0.22125076    571.05491     3282.497 
 8940000    295.77839    327637.96   -241.97988   0.22342329    564.40937    3318.7127 
 8950000    296.37383     324441.7   -52.590892   0.22562436     625.1758    3385.0239 
 8960000    287.73506     321266.3    84.514005   0.22785444    661.27605    3340.6795 
 8970000    287.40657    318111.68   -98.331522     0.230114    545.91473    3222.2592 
 8980000    294.15987    314977.78   -47.368632   0.23240354    511.04668    3250.2783 
 8990000    291.57389    311864.54   -76.736362   0.23472355    654.54973    3369.7006 
 9000000    286.33408    308771.87   -294.82375   0.23707455    561.74736    3228.1048 
 9010000    301.91588    305699.72    75.777017   0.23945705    554.19712     3365.653 
 9020000    283.67076    302648.02   -343.41541   0.24187157     631.4191    3272.9756 
 9030000    285.55441    299616.69   -67.671605   0.24431868    562.47546    3221.5725 
 9040000    286.35422    296605.67   -10.418891    0.2467989    613.97121    3280.5162 
 9050000    296.37541    293614.89    94.515682   0.24931281    514.62209    3274.4849 
 9060000     294.3043    290644.29    132.38443   0.25186097    469.83801    3210.4145 
 9070000    296.42927    287693.79    54.023977   0.25444398    518.63373    3278.9981 
 9080000    290.91401    284763.32   -43.123418   0.25706243    531.49436    3240.5003 
 9090000    294.57957    281852.82    200.23132   0.25971694    476.68011      3219.82 
 9100000    290.67632    278962.22   -37.868719   0.26240812    515.71116    3222.5037 
 9110000    295.24216    276091.46    -211.3553   0.26513661    572.70788    3322.0178 
 9120000    292.37642    273240.46    39.252728   0.26790305    527.81598      3250.44 
 9130000    289.72991    270409.15   -98.017812   0.27070812    508.11914    3206.0987 
 9140000    291.74807    267597.46     -198.981   0.27355249    504.87915    3221.6519 
 9150000    297.03306    264805.34    216.08919   0.27643684    550.73284    3316.7197 
 9160000    292.52833    262032.71   -36.427971   0.27936189    590.91058    3314.9492 
 9170000    295.52833    259279.49   -74.949494   0.28232835    536.64974    3288.6245 
 9180000    290.92725    256545.63   -23.374392   0.28533696    519.73064    3228.8599 
 9190000    294.60548    253831.06    53.147073   0.28838847    553.07929    3296.4604 
 9200000    294.42742     251135.7   -84.792197   0.29148365    561.81341    3303.5365 
 9210000    287.63729     248459.5   -266.34415   0.29462328    420.06828    3098.5613 
 9220000    288.84536    245802.37    258.43273   0.29780817    477.54269    3167.2852 
 9230000    296.74409    243164.25    -107.0406   0.30103912    510.69926    3273.9952 
 9240000    294.51257    240545.08   -258.55758   0.30431698     464.0254    3206.5414 
 9250000    291.65248    237944.79    259.35332    0.3076426    413.62212    3129.5048 
 9260000    290.77242     235363.3   -86.451289   0.31101686    482.40399    3190.0915 
 9270000    296.06588    232800.55    18.555204   0.31444064    475.18483    3232.1653 
 9280000    290.12402    230256.47    7.4502621   0.31791486    386.52174    3088.1713 
 9290000    293.09894    227730.99   -157.42315   0.32144045    385.69565    3115.0478 
 9300000    292.92489    225224.05    520.45199   0.32501837    385.70617    3113.4375 
 9310000    286.99572    222735.57   -210.22414   0.32864958    374.08523    3046.6039 
 9320000    296.16366     220265.5   -224.92532   0.33233509     351.2934    3109.1844 
 9330000    296.14867    217813.75    26.376416   0.33607591    420.41233    3178.1637 
 9340000    294.86109    215380.26   -140.97712   0.33987308    262.83605    3008.5974 
 9350000    290.17283    212964.96    405.72056   0.34372768    404.56409    3106.6681 
 9360000    290.14679    210567.79    43.646065   0.34764078    371.49251    3073.3541 
 9370000    288.56926    208188.68    278.85518   0.35161351    345.92186    3033.0934 
 9380000      286.797    205827.56   -328.11438     0.355647    326.54714    2997.2153 
 9390000    292.73004    203484.35   -523.07487   0.35974242    420.61796    3146.5349 
 9400000    292.98493       201159    479.92329   0.36390096    323.90394    3052.1944 
 9410000    291.65916    198851.43    3.2019036   0.36812385     280.6883    2996.6331 
 9420000    293.51829    196561.57   -311.63836   0.37241232    336.94444    3070.2016 
 9430000    294.58031    194289.37    433.71086   0.37676768    321.50843    3064.6551 
 9440000     297.4787    192034.74    245.03235   0.38119121    342.69461    3112.8313 
 9450000    296.56207    189797.62   -49.342178   0.38568425    350.45632    3112.0573 
 9460000    298.59515    187577.94    351.07651   0.39024819    330.78676    3111.3199 
 9470000    289.25576    185375.64   -92.829253   0.39488443    326.87296    3020.4373 
 9480000    291.09174    183190.64   -197.79818   0.39959439    347.76843    3058.4294 
 9490000    288.84145    181022.88    231.85406   0.40437956    271.94193    2961.6482 
 9500000    297.85792    178872.29    183.16718   0.40924144    325.76855    3099.4366 
 9510000    286.78767     176738.8   -353.47125   0.41418157    257.18793    2927.7692 
 9520000    290.87825    174622.34    79.752934   0.41920153    318.17556    3026.8485 
 9530000    295.54747    172522.85   -88.134816   0.42430295    287.77035    3039.9234 
 9540000    292.09415    170440.25   -238.42626   0.42948747    288.91023    3008.9057 
 9550000    297.20963    168374.48    166.54014   0.43475681    289.02603    3056.6571 
 9560000    293.65048    166325.47    296.82996    0.4401127    241.30353    2975.7917 
 9570000    292.40346    164293.15   -168.18103   0.44555693     314.5222     3037.398 
 9580000    291.65416    162277.46    9.0983434   0.45109133    301.02962    3016.9279 
 9590000    297.75699    160278.31   -475.85434   0.45671776    191.56097    2964.2891 
 9600000    295.00945    158295.66   -331.06604   0.46243815    216.52425    2963.6672 
 9610000    288.04806    156329.42   -2.2782548   0.46825448    208.92497     2891.243 
 9620000    292.12599    154379.54     -399.924   0.47416876    222.02244    2942.3144 
 9630000    291.44046    152445.93    -405.2271   0.48018305     276.6128    2990.5211 
 9640000    294.85591    150528.54    86.961974   0.48629949    166.77621    2912.4894 
 9650000    292.09347    148627.29   -82.602777   0.49252026    178.36239    2898.3515 
 9660000    292.02931    146742.12    363.71158   0.49884758    183.29234    2902.6841 
 9670000    295.34038    144872.96     93.12165   0.50528374    104.33958    2854.5642 
 9680000    296.59851    143019.74     180.8929   0.51183111    243.07073    3005.0111 
 9690000    296.20545    141182.39    720.27747   0.51849208    146.26144    2904.5416 
 9700000    293.64522    139360.85   -394.69849   0.52526914     141.1145    2875.5536 
 9710000    298.60767    137555.04    132.22622   0.53216482    106.43646    2887.0862 
 9720000    291.28264     135764.9    196.37034   0.53918173    121.41684    2833.8555 
 9730000    293.26629    133990.35    217.62826   0.54632255    73.336845    2804.2474 
 9740000    298.30144    132231.34   -43.951809   0.55359003    159.35579    2937.1539 
 9750000    288.81575    130487.79   -300.38375   0.56098698    97.996834    2787.4637 
 9760000    288.64117    128759.64    46.260279    0.5685163    140.23223    2828.0735 
 9770000    297.44302    127046.81   -240.38108   0.57618096    127.61156     2897.416 
 9780000    293.31105    125349.24    665.46322   0.58398403    72.577551    2803.9049 
 9790000     291.7178    123666.85    243.41704   0.59192863    50.942404    2767.4333 
 9800000    288.05029    121999.59   -757.91715     0.600018    111.30909     2793.648 
 9810000    297.86595    120347.39   -626.80422   0.60825544    116.94065    2890.6835 
 9820000    287.16779    118710.16   -331.35245   0.61664436    192.59442    2866.7154 
 9830000    305.21906    117087.86    434.27197   0.62518826    36.098147    2878.3135 
 9840000    289.85063     115480.4   -583.36303   0.63389072    107.57076    2806.6745 
 9850000    294.59333    113887.72    278.00003   0.64275545    131.11554    2874.3836 
 9860000    295.36558    112309.75    356.49967   0.65178626     70.35586    2820.8151 
 9870000    294.12431    110746.43    192.67163   0.66098703    39.944792    2778.8453 
 9880000    295.47897    109197.68   -650.03015    0.6703618     16.47709    2767.9922 
 9890000    286.02885    107663.44    312.18917   0.67991469    87.080944     2750.596 
 9900000    292.36422    106143.63     135.5976   0.68964995   -7.2952073    2715.2152 
 9910000    295.06398     104638.2    462.34942   0.69957197    41.216519    2788.8673 
 9920000     285.0425    103147.07   -99.868204   0.70968523   -100.24959    2554.0806 
 9930000    296.38781    101670.17   -74.520166   0.71999437   -62.253346    2697.7249 
 9940000    297.66516    100207.44    745.68572   0.73050415   -30.276018     2741.597 
 9950000    294.87723    98758.808   -428.72757   0.74121948    -86.85478    2659.0569 
 9960000    297.95406    97324.203   -135.22835   0.75214541   -101.08139    2673.4819 
 9970000    296.98521    95903.559    210.98958   0.76328713   -82.531839    2683.0095 
 9980000    291.50187    94496.807     333.2637   0.77465001    -107.2938    2607.1864 
 9990000     293.8234     93103.88    854.40203   0.78623955   -192.43356    2543.6648 
10000000    290.96764    91724.708    698.02704   0.79806144    -192.6456    2516.8597 
10000378    296.38139    91672.844    449.74919   0.79851294   -236.09925    2523.8192 
Loop time of 3442.14 on 64 procs for 10000000 steps with 3125 atoms

Performance: 251.007 ns/day, 0.096 hours/ns, 2905.169 timesteps/s
99.7% CPU use with 64 MPI tasks x 1 OpenMP threads

MPI task timing breakdown:
Section |  min time  |  avg time  |  max time  |%varavg| %total
---------------------------------------------------------------
Pair    | 36.254     | 316.14     | 1257.6     |1378.1 |  9.18
Bond    | 45.576     | 146.89     | 433.3      | 636.0 |  4.27
Neigh   | 555.52     | 564.35     | 576.08     |  21.6 | 16.40
Comm    | 749.51     | 1341.3     | 1922.6     | 747.0 | 38.97
Output  | 5.4434     | 6.7751     | 6.7967     |   6.4 |  0.20
Modify  | 189.51     | 264.61     | 374.44     | 266.2 |  7.69
Other   |            | 802.1      |            |       | 23.30

Nlocal:    48.8281 ave 60 max 21 min
Histogram: 1 0 0 1 5 7 10 24 8 8
Nghost:    1053.56 ave 1110 max 990 min
Histogram: 2 6 8 7 5 8 10 2 11 5
Neighs:    3698.8 ave 4856 max 1119 min
Histogram: 1 0 0 3 5 6 14 18 12 5

Total # of neighbors = 236723
Ave neighs/atom = 75.7514
Ave special neighs/atom = 5.76
Neighbor list builds = 1091600
Dangerous builds = 0
undump         	gphase1
write_restart  	restart_files/sql.gphase1.*
unfix		ensemble
unfix 		thermostat
unfix		compress

#shell		sh cleanlog.sh	# a script I wrote to clean the log.lammps file into just the thermodynamics data. commented out
Total wall time: 0:57:22
